! NanoVNA-App
! Date: 2026-02-07 22:25:06
! Start: 5,3GHz Stop: 6,3GHz Points: 1001
! S-Parameter data: F S11
# Hz S RI R 50
!     Frequency           S11_Real           S11_Imag
     5300000000    6,809342653e-02   -1,487864256e-01
     5301000000    6,923448294e-02   -1,461051852e-01
     5302000000    7,273598015e-02   -1,394542456e-01
     5303000000    7,276937366e-02   -1,408865452e-01
     5304000000    7,115051150e-02   -1,433890909e-01
     5305000000    6,596567482e-02   -1,458676308e-01
     5306000000    7,404301316e-02   -1,373700052e-01
     5307000000    7,716365904e-02   -1,363543421e-01
     5308000000    7,416479290e-02   -1,372823864e-01
     5309000000    7,353326678e-02   -1,359779537e-01
     5310000000    7,760223001e-02   -1,362385303e-01
     5311000000    7,654205710e-02   -1,336020380e-01
     5312000000    7,878471911e-02   -1,326509863e-01
     5313000000    7,296185941e-02   -1,317605376e-01
     5314000000    7,489684224e-02   -1,308601201e-01
     5315000000    7,515781373e-02   -1,282353401e-01
     5316000000    8,216819912e-02   -1,297250539e-01
     5317000000    7,719364762e-02   -1,280555874e-01
     5318000000    7,330282778e-02   -1,297994852e-01
     5319000000    8,800770342e-02   -1,186332703e-01
     5320000000    8,114415407e-02   -1,247814372e-01
     5321000000    8,511273563e-02   -1,183015183e-01
     5322000000    8,511947095e-02   -1,184774637e-01
     5323000000    8,143506944e-02   -1,195674837e-01
     5324000000    8,076160401e-02   -1,220332310e-01
     5325000000    9,336952120e-02   -1,101633608e-01
     5326000000    8,466119319e-02   -1,159084514e-01
     5327000000    8,584009856e-02   -1,117850170e-01
     5328000000    8,980160952e-02   -1,110123992e-01
     5329000000    9,045626223e-02   -1,091717854e-01
     5330000000    9,087660164e-02   -1,099055409e-01
     5331000000    9,656108171e-02   -1,046030894e-01
     5332000000    8,902678639e-02   -1,058205962e-01
     5333000000    8,966339380e-02   -1,059591472e-01
     5334000000    9,734778851e-02   -9,831216186e-02
     5335000000    8,836308122e-02   -1,081208214e-01
     5336000000    1,000670344e-01   -9,499631822e-02
     5337000000    9,858449548e-02   -9,585478157e-02
     5338000000    8,983811736e-02   -1,086135581e-01
     5339000000    1,010480076e-01   -9,197366238e-02
     5340000000    9,124036133e-02   -9,660822153e-02
     5341000000    1,040554866e-01   -8,694338053e-02
     5342000000    9,612202644e-02   -9,563557059e-02
     5343000000    9,466987848e-02   -9,433217347e-02
     5344000000    1,131355539e-01   -7,945910096e-02
     5345000000    9,276343882e-02   -9,248714894e-02
     5346000000    1,081573963e-01   -8,308157325e-02
     5347000000    9,920991957e-02   -8,899210393e-02
     5348000000    1,020139679e-01   -8,739095181e-02
     5349000000    1,095177606e-01   -7,610216737e-02
     5350000000    1,077916995e-01   -7,886092365e-02
     5351000000    1,047619358e-01   -8,174224943e-02
     5352000000    1,113919243e-01   -7,065032423e-02
     5353000000    9,837625176e-02   -8,533398062e-02
     5354000000    1,136874929e-01   -6,993577629e-02
     5355000000    1,101819649e-01   -7,778190076e-02
     5356000000    1,094535589e-01   -7,441477478e-02
     5357000000    1,116023064e-01   -7,112953067e-02
     5358000000    1,136936471e-01   -7,128269225e-02
     5359000000    1,185509861e-01   -6,206803769e-02
     5360000000    1,135192662e-01   -6,937367469e-02
     5361000000    1,145465672e-01   -7,023467124e-02
     5362000000    1,156709567e-01   -6,662695110e-02
     5363000000    1,154420823e-01   -6,664755195e-02
     5364000000    1,208918318e-01   -6,037369743e-02
     5365000000    1,221124083e-01   -6,849729270e-02
     5366000000    1,191866547e-01   -6,433697790e-02
     5367000000    1,190495566e-01   -5,843737349e-02
     5368000000    1,200933680e-01   -6,237611175e-02
     5369000000    1,267464012e-01   -5,323648825e-02
     5370000000    1,233605370e-01   -5,806947127e-02
     5371000000    1,241873726e-01   -5,780990049e-02
     5372000000    1,268012524e-01   -5,154778436e-02
     5373000000    1,251957119e-01   -5,618187413e-02
     5374000000    1,296341717e-01   -5,111511424e-02
     5375000000    1,277471781e-01   -5,368966982e-02
     5376000000    1,288826466e-01   -5,719008669e-02
     5377000000    1,281632334e-01   -4,551658779e-02
     5378000000    1,313257664e-01   -4,833236337e-02
     5379000000    1,332201809e-01   -4,308627918e-02
     5380000000    1,273288578e-01   -4,878205806e-02
     5381000000    1,285019964e-01   -5,263378099e-02
     5382000000    1,315122843e-01   -4,230115563e-02
     5383000000    1,355368942e-01   -4,356750473e-02
     5384000000    1,350289583e-01   -4,236701131e-02
     5385000000    1,341135204e-01   -4,338504001e-02
     5386000000    1,347095966e-01   -4,241165146e-02
     5387000000    1,356766373e-01   -3,472254798e-02
     5388000000    1,350042522e-01   -3,729715571e-02
     5389000000    1,368059516e-01   -3,872809932e-02
     5390000000    1,375780702e-01   -3,671427071e-02
     5391000000    1,374931782e-01   -3,233602270e-02
     5392000000    1,415226460e-01   -2,621891722e-02
     5393000000    1,461287886e-01   -3,032157011e-02
     5394000000    1,410779059e-01   -3,413984552e-02
     5395000000    1,407278478e-01   -2,905607224e-02
     5396000000    1,426364332e-01   -3,084455803e-02
     5397000000    1,450991780e-01   -2,275154367e-02
     5398000000    1,463874280e-01   -2,493703179e-02
     5399000000    1,447618753e-01   -2,801194973e-02
     5400000000    1,461782902e-01   -1,678981818e-02
     5401000000    1,476067454e-01   -2,262772247e-02
     5402000000    1,494536847e-01   -1,535956468e-02
     5403000000    1,492191404e-01   -1,857316121e-02
     5404000000    1,519166082e-01   -1,990701631e-02
     5405000000    1,503731310e-01   -1,152160019e-02
     5406000000    1,532720625e-01   -1,144000236e-02
     5407000000    1,577209532e-01   -8,738595061e-03
     5408000000    1,555966139e-01   -1,208935585e-02
     5409000000    1,578867733e-01   -1,120382082e-02
     5410000000    1,537707448e-01   -9,167557582e-04
     5411000000    1,614273190e-01   -7,895340212e-03
     5412000000    1,630841047e-01    2,091596834e-03
     5413000000    1,637744159e-01    2,342350781e-03
     5414000000    1,638188064e-01   -2,117016353e-03
     5415000000    1,645145714e-01    6,970930845e-04
     5416000000    1,666634828e-01    3,364149481e-03
     5417000000    1,719768643e-01    5,284296349e-03
     5418000000    1,685544997e-01    2,800201066e-03
     5419000000    1,699936837e-01    6,200661883e-03
     5420000000    1,694719940e-01    1,333044376e-02
     5421000000    1,755443960e-01    1,032467838e-02
     5422000000    1,778392494e-01    1,113233529e-02
     5423000000    1,763062030e-01    1,308894902e-02
     5424000000    1,789527833e-01    1,425079908e-02
     5425000000    1,779831797e-01    1,737164333e-02
     5426000000    1,829321086e-01    1,786566153e-02
     5427000000    1,828359514e-01    1,522282045e-02
     5428000000    1,815356463e-01    2,151541784e-02
     5429000000    1,826736778e-01    1,925473846e-02
     5430000000    1,852436215e-01    2,346957847e-02
     5431000000    1,869150400e-01    2,493994310e-02
     5432000000    1,937709600e-01    2,285457030e-02
     5433000000    1,875715703e-01    2,980357967e-02
     5434000000    1,947700232e-01    2,523651719e-02
     5435000000    1,940383613e-01    3,083316423e-02
     5436000000    1,962868571e-01    3,065790422e-02
     5437000000    1,945711374e-01    3,027105145e-02
     5438000000    1,987814009e-01    3,114296868e-02
     5439000000    2,009490281e-01    3,431251645e-02
     5440000000    2,007960975e-01    3,869940713e-02
     5441000000    2,005013525e-01    3,624983132e-02
     5442000000    2,049068958e-01    3,922566399e-02
     5443000000    2,020694464e-01    3,862886876e-02
     5444000000    2,062048614e-01    4,512598366e-02
     5445000000    2,099020779e-01    4,398676008e-02
     5446000000    2,113431096e-01    4,376883432e-02
     5447000000    2,100584805e-01    4,334165156e-02
     5448000000    2,125570476e-01    4,629871249e-02
     5449000000    2,105451971e-01    4,950287193e-02
     5450000000    2,169026881e-01    4,952156544e-02
     5451000000    2,159948498e-01    5,199178681e-02
     5452000000    2,187869847e-01    5,170400441e-02
     5453000000    2,184524089e-01    5,164998025e-02
     5454000000    2,187320143e-01    5,619016290e-02
     5455000000    2,224943489e-01    5,633445084e-02
     5456000000    2,220225781e-01    5,713598058e-02
     5457000000    2,248736024e-01    5,719940737e-02
     5458000000    2,268042564e-01    5,879233032e-02
     5459000000    2,252677977e-01    6,222061440e-02
     5460000000    2,305444926e-01    6,232329085e-02
     5461000000    2,268988490e-01    5,811576545e-02
     5462000000    2,317026258e-01    6,194152683e-02
     5463000000    2,320097834e-01    6,518319249e-02
     5464000000    2,321570367e-01    6,631643325e-02
     5465000000    2,329303473e-01    6,681604683e-02
     5466000000    2,338893414e-01    6,691353768e-02
     5467000000    2,371373475e-01    6,681872159e-02
     5468000000    2,382924110e-01    7,006081939e-02
     5469000000    2,399720699e-01    7,393977791e-02
     5470000000    2,408643812e-01    6,943979859e-02
     5471000000    2,397943735e-01    7,159702480e-02
     5472000000    2,440039814e-01    7,421840727e-02
     5473000000    2,457472831e-01    7,284976542e-02
     5474000000    2,435301989e-01    7,608498633e-02
     5475000000    2,449037135e-01    7,949962467e-02
     5476000000    2,477712631e-01    7,544230670e-02
     5477000000    2,474296093e-01    7,817795873e-02
     5478000000    2,545509636e-01    7,968305051e-02
     5479000000    2,478636950e-01    8,332521468e-02
     5480000000    2,532818019e-01    8,232259750e-02
     5481000000    2,519916594e-01    8,070574701e-02
     5482000000    2,569054067e-01    8,274535090e-02
     5483000000    2,559773326e-01    8,479135484e-02
     5484000000    2,573093772e-01    8,638825268e-02
     5485000000    2,553494871e-01    8,756069094e-02
     5486000000    2,612420022e-01    8,565578610e-02
     5487000000    2,612904012e-01    8,800230920e-02
     5488000000    2,625662982e-01    9,006661922e-02
     5489000000    2,595995367e-01    8,978962153e-02
     5490000000    2,614233792e-01    9,154743701e-02
     5491000000    2,664492726e-01    9,043024480e-02
     5492000000    2,629910111e-01    9,448205680e-02
     5493000000    2,693665028e-01    9,416940808e-02
     5494000000    2,711731195e-01    9,381319582e-02
     5495000000    2,652737796e-01    9,569350630e-02
     5496000000    2,745548785e-01    9,855672717e-02
     5497000000    2,687097490e-01    9,709028155e-02
     5498000000    2,743070722e-01    9,753295779e-02
     5499000000    2,726276219e-01    9,829168022e-02
     5500000000    2,750823200e-01    1,005229354e-01
     5501000000    2,814559042e-01    9,930516034e-02
     5502000000    2,752269208e-01    1,011652499e-01
     5503000000    2,786143720e-01    1,029637679e-01
     5504000000    2,816701233e-01    1,032347530e-01
     5505000000    2,800595760e-01    1,045735404e-01
     5506000000    2,910038233e-01    1,042088866e-01
     5507000000    2,799845338e-01    1,060127020e-01
     5508000000    2,854807675e-01    1,064243168e-01
     5509000000    2,899083793e-01    1,070993841e-01
     5510000000    2,870866954e-01    1,078715175e-01
     5511000000    2,945964634e-01    1,086121947e-01
     5512000000    2,872334719e-01    1,083693951e-01
     5513000000    2,902072072e-01    1,101396382e-01
     5514000000    2,938416600e-01    1,114402711e-01
     5515000000    2,941186428e-01    1,121361777e-01
     5516000000    2,985092700e-01    1,129806116e-01
     5517000000    2,929183841e-01    1,133420169e-01
     5518000000    2,992056310e-01    1,135381013e-01
     5519000000    3,046280742e-01    1,155427024e-01
     5520000000    3,004581332e-01    1,154892370e-01
     5521000000    3,042013049e-01    1,153815910e-01
     5522000000    3,006027341e-01    1,156574562e-01
     5523000000    3,019598722e-01    1,166394278e-01
     5524000000    3,139401972e-01    1,211123019e-01
     5525000000    3,065908551e-01    1,197362915e-01
     5526000000    3,141606152e-01    1,200008318e-01
     5527000000    3,081109822e-01    1,188590154e-01
     5528000000    3,101562858e-01    1,195088029e-01
     5529000000    3,209754229e-01    1,248562410e-01
     5530000000    3,144790530e-01    1,209134832e-01
     5531000000    3,162504733e-01    1,231999695e-01
     5532000000    3,172292709e-01    1,237377524e-01
     5533000000    3,181870878e-01    1,250430197e-01
     5534000000    3,286437690e-01    1,283950657e-01
     5535000000    3,217058182e-01    1,241277382e-01
     5536000000    3,232491016e-01    1,226811633e-01
     5537000000    3,228056729e-01    1,257073283e-01
     5538000000    3,257458210e-01    1,261530370e-01
     5539000000    3,343712687e-01    1,307181269e-01
     5540000000    3,298160434e-01    1,271810085e-01
     5541000000    3,280172348e-01    1,234673709e-01
     5542000000    3,357480764e-01    1,299969107e-01
     5543000000    3,351146877e-01    1,288570315e-01
     5544000000    3,373721838e-01    1,301834285e-01
     5545000000    3,346870244e-01    1,267921031e-01
     5546000000    3,381201923e-01    1,264701635e-01
     5547000000    3,404996693e-01    1,327579468e-01
     5548000000    3,426355720e-01    1,277632415e-01
     5549000000    3,493928611e-01    1,303555816e-01
     5550000000    3,402351141e-01    1,280947924e-01
     5551000000    3,454239070e-01    1,255731583e-01
     5552000000    3,495884240e-01    1,340656728e-01
     5553000000    3,532953858e-01    1,326225400e-01
     5554000000    3,553959131e-01    1,288542300e-01
     5555000000    3,490011990e-01    1,280595213e-01
     5556000000    3,538233936e-01    1,288812160e-01
     5557000000    3,582926989e-01    1,373995394e-01
     5558000000    3,590604365e-01    1,330022365e-01
     5559000000    3,603813052e-01    1,310428083e-01
     5560000000    3,624399900e-01    1,293325275e-01
     5561000000    3,597966433e-01    1,274913400e-01
     5562000000    3,654388487e-01    1,367810071e-01
     5563000000    3,636014760e-01    1,312032938e-01
     5564000000    3,691353202e-01    1,275769472e-01
     5565000000    3,621099293e-01    1,305746734e-01
     5566000000    3,675982356e-01    1,269805431e-01
     5567000000    3,747318983e-01    1,344761252e-01
     5568000000    3,740448952e-01    1,269334704e-01
     5569000000    3,736944199e-01    1,272832304e-01
     5570000000    3,751542270e-01    1,285146475e-01
     5571000000    3,778149486e-01    1,296171993e-01
     5572000000    3,830578029e-01    1,368157864e-01
     5573000000    3,819972575e-01    1,281595677e-01
     5574000000    3,830871582e-01    1,238134578e-01
     5575000000    3,845778108e-01    1,309233755e-01
     5576000000    3,878412247e-01    1,238403320e-01
     5577000000    3,923397660e-01    1,337348074e-01
     5578000000    3,907994926e-01    1,225590408e-01
     5579000000    3,953929245e-01    1,177763939e-01
     5580000000    3,910716772e-01    1,295591444e-01
     5581000000    3,924869597e-01    1,216039360e-01
     5582000000    4,022185504e-01    1,270549297e-01
     5583000000    4,009619355e-01    1,193625107e-01
     5584000000    4,046753943e-01    1,180636585e-01
     5585000000    4,006837606e-01    1,318034381e-01
     5586000000    4,089696407e-01    1,167062297e-01
     5587000000    4,086202085e-01    1,223268360e-01
     5588000000    4,102596939e-01    1,178749651e-01
     5589000000    4,107504785e-01    1,165449396e-01
     5590000000    4,086754024e-01    1,256378442e-01
     5591000000    4,162201881e-01    1,166700795e-01
     5592000000    4,188644886e-01    1,170206219e-01
     5593000000    4,174835682e-01    1,128247306e-01
     5594000000    4,237203002e-01    1,081158891e-01
     5595000000    4,177173376e-01    1,261193752e-01
     5596000000    4,252160192e-01    1,104731634e-01
     5597000000    4,339865744e-01    1,119590253e-01
     5598000000    4,305953085e-01    1,160667315e-01
     5599000000    4,312183261e-01    1,073618010e-01
     5600000000    4,272840023e-01    1,211118698e-01
     5601000000    4,410548508e-01    1,075669155e-01
     5602000000    4,401120543e-01    1,076991558e-01
     5603000000    4,444145858e-01    1,041823030e-01
     5604000000    4,391308129e-01    1,009362936e-01
     5605000000    4,437241852e-01    1,062948927e-01
     5606000000    4,520072341e-01    1,061353236e-01
     5607000000    4,556685090e-01    9,909820557e-02
     5608000000    4,565517306e-01    1,019757316e-01
     5609000000    4,536289275e-01    1,030823588e-01
     5610000000    4,578706920e-01    1,009052098e-01
     5611000000    4,653860629e-01    9,453419596e-02
     5612000000    4,677735269e-01    9,762912989e-02
     5613000000    4,677114487e-01    9,214029461e-02
     5614000000    4,699572921e-01    8,994542807e-02
     5615000000    4,736619890e-01    9,330572188e-02
     5616000000    4,777580202e-01    9,099417180e-02
     5617000000    4,816724360e-01    8,555684239e-02
     5618000000    4,742669463e-01    9,492164850e-02
     5619000000    4,875259697e-01    8,447921276e-02
     5620000000    4,925642908e-01    9,054172039e-02
     5621000000    4,929784834e-01    8,319219202e-02
     5622000000    5,017507672e-01    7,360158861e-02
     5623000000    4,899285734e-01    8,829384297e-02
     5624000000    4,976262152e-01    8,127468079e-02
     5625000000    5,073266029e-01    7,581970841e-02
     5626000000    5,047835708e-01    7,312141359e-02
     5627000000    5,053119659e-01    6,978294253e-02
     5628000000    4,955621660e-01    8,713135123e-02
     5629000000    5,181662440e-01    6,002045050e-02
     5630000000    5,194770694e-01    6,340099126e-02
     5631000000    5,183538198e-01    6,717105955e-02
     5632000000    5,287260413e-01    5,489369482e-02
     5633000000    5,157350302e-01    7,345131785e-02
     5634000000    5,324059129e-01    5,606979132e-02
     5635000000    5,370337367e-01    5,497786403e-02
     5636000000    5,324642062e-01    5,829690024e-02
     5637000000    5,498669147e-01    3,865046799e-02
     5638000000    5,361905694e-01    5,920145288e-02
     5639000000    5,449207425e-01    5,397863314e-02
     5640000000    5,555777550e-01    2,824878134e-02
     5641000000    5,466508269e-01    4,973664135e-02
     5642000000    5,603970289e-01    3,072666377e-02
     5643000000    5,531089306e-01    3,710462153e-02
     5644000000    5,632485747e-01    3,784077987e-02
     5645000000    5,649722815e-01    2,232791297e-02
     5646000000    5,613314509e-01    3,721937910e-02
     5647000000    5,624051690e-01    3,478866816e-02
     5648000000    5,633763075e-01    3,642990068e-02
     5649000000    5,700361133e-01    4,026767612e-02
     5650000000    5,828238130e-01    1,581964083e-02
     5651000000    5,723524690e-01    1,702751592e-02
     5652000000    5,727332830e-01    2,436660975e-02
     5653000000    5,860731602e-01   -1,569619402e-02
     5654000000    5,929857492e-01    1,197870076e-02
     5655000000    5,909910798e-01    2,187217586e-03
     5656000000    5,806205869e-01    8,025432937e-03
     5657000000    5,903651714e-01    1,688298211e-02
     5658000000    6,064412594e-01   -2,148163132e-02
     5659000000    5,947193503e-01   -7,413476706e-03
     5660000000    6,024005413e-01   -6,578860804e-03
     5661000000    6,022477150e-01   -2,661615983e-02
     5662000000    6,056275964e-01   -1,795760356e-02
     5663000000    6,066050529e-01   -1,860817336e-02
     5664000000    6,112297773e-01   -2,323965356e-02
     5665000000    6,257163286e-01   -3,105480038e-02
     5666000000    5,984798670e-01   -1,278713811e-02
     5667000000    6,151154637e-01   -2,994285710e-02
     5668000000    6,250925064e-01   -4,458090290e-02
     5669000000    6,100037098e-01   -2,204009704e-02
     5670000000    6,283184290e-01   -5,041480437e-02
     5671000000    6,164647937e-01   -3,864984214e-02
     5672000000    6,190778017e-01   -4,205602780e-02
     5673000000    6,436859369e-01   -6,386186182e-02
     5674000000    6,277792454e-01   -5,355263874e-02
     5675000000    6,341430545e-01   -6,533102691e-02
     5676000000    6,266441345e-01   -6,349046528e-02
     5677000000    6,341364980e-01   -5,659385771e-02
     5678000000    6,469960213e-01   -8,853340894e-02
     5679000000    6,235340834e-01   -4,804837331e-02
     5680000000    6,354949474e-01   -7,110226154e-02
     5681000000    6,352925897e-01   -6,805069745e-02
     5682000000    6,448135972e-01   -8,155224472e-02
     5683000000    6,605762243e-01   -1,020034775e-01
     5684000000    6,357930303e-01   -8,025348186e-02
     5685000000    6,570564508e-01   -9,802487493e-02
     5686000000    6,457930207e-01   -9,677065909e-02
     5687000000    6,418031454e-01   -8,659123629e-02
     5688000000    6,663196683e-01   -1,134300828e-01
     5689000000    6,594859958e-01   -1,043206230e-01
     5690000000    6,425511837e-01   -9,967292845e-02
     5691000000    6,537616253e-01   -1,106054410e-01
     5692000000    6,552883983e-01   -1,080610603e-01
     5693000000    6,704495549e-01   -1,347501427e-01
     5694000000    6,480658054e-01   -1,120250225e-01
     5695000000    6,621520519e-01   -1,267160475e-01
     5696000000    6,691378951e-01   -1,427419484e-01
     5697000000    6,590465903e-01   -1,260978729e-01
     5698000000    6,658032537e-01   -1,372261345e-01
     5699000000    6,603280306e-01   -1,353656203e-01
     5700000000    6,644223928e-01   -1,436654031e-01
     5701000000    6,855921745e-01   -1,559692174e-01
     5702000000    6,597363353e-01   -1,427440643e-01
     5703000000    6,667752266e-01   -1,516851634e-01
     5704000000    6,731951833e-01   -1,658021659e-01
     5705000000    6,673204303e-01   -1,536063105e-01
     5706000000    6,806802154e-01   -1,801675558e-01
     5707000000    6,526979804e-01   -1,592387408e-01
     5708000000    6,756078601e-01   -1,788582653e-01
     5709000000    6,722810268e-01   -1,877717227e-01
     5710000000    6,766382456e-01   -1,890698224e-01
     5711000000    6,736609340e-01   -1,960339546e-01
     5712000000    6,756410599e-01   -1,998697370e-01
     5713000000    6,885396838e-01   -2,109566927e-01
     5714000000    6,658116579e-01   -2,019139379e-01
     5715000000    6,894782186e-01   -2,281086594e-01
     5716000000    6,732529998e-01   -2,176425606e-01
     5717000000    6,740009785e-01   -2,280929536e-01
     5718000000    6,771522164e-01   -2,373509109e-01
     5719000000    6,829353571e-01   -2,538631856e-01
     5720000000    6,608288288e-01   -2,402852327e-01
     5721000000    6,778298616e-01   -2,653357685e-01
     5722000000    6,622456312e-01   -2,482625246e-01
     5723000000    6,760955453e-01   -2,722349167e-01
     5724000000    6,710730791e-01   -2,740598917e-01
     5725000000    6,445089579e-01   -2,648876011e-01
     5726000000    6,780183911e-01   -3,012916744e-01
     5727000000    6,507812142e-01   -2,759260833e-01
     5728000000    6,601777077e-01   -2,917543650e-01
     5729000000    6,636573672e-01   -3,097985089e-01
     5730000000    6,454147696e-01   -3,046312332e-01
     5731000000    6,670015454e-01   -3,344539404e-01
     5732000000    6,381787658e-01   -3,077304661e-01
     5733000000    6,346673965e-01   -3,282068670e-01
     5734000000    6,522755027e-01   -3,433285058e-01
     5735000000    6,287360787e-01   -3,400493562e-01
     5736000000    6,224637628e-01   -3,462273777e-01
     5737000000    6,284433603e-01   -3,473618925e-01
     5738000000    6,230887771e-01   -3,657459021e-01
     5739000000    6,239173412e-01   -3,761990368e-01
     5740000000    6,115019917e-01   -3,742107749e-01
     5741000000    6,027699113e-01   -3,811712563e-01
     5742000000    6,084747910e-01   -3,812256455e-01
     5743000000    5,907827020e-01   -3,849335015e-01
     5744000000    5,935508609e-01   -3,988852501e-01
     5745000000    5,799767971e-01   -3,975694776e-01
     5746000000    5,792406797e-01   -4,053038359e-01
     5747000000    5,783785582e-01   -4,059235454e-01
     5748000000    5,635508895e-01   -4,137635529e-01
     5749000000    5,689415932e-01   -4,282138646e-01
     5750000000    5,509994030e-01   -4,238198102e-01
     5751000000    5,498318672e-01   -4,344092607e-01
     5752000000    5,439684391e-01   -4,269237518e-01
     5753000000    5,303961039e-01   -4,397554398e-01
     5754000000    5,325177312e-01   -4,518677592e-01
     5755000000    5,172672868e-01   -4,473906457e-01
     5756000000    5,131831765e-01   -4,541779459e-01
     5757000000    5,152716637e-01   -4,550560415e-01
     5758000000    4,954424798e-01   -4,649996161e-01
     5759000000    4,875697196e-01   -4,741226435e-01
     5760000000    4,805449545e-01   -4,670796692e-01
     5761000000    4,719855487e-01   -4,749568999e-01
     5762000000    4,718520343e-01   -4,800398648e-01
     5763000000    4,495183229e-01   -4,894529283e-01
     5764000000    4,418751597e-01   -4,865258038e-01
     5765000000    4,389368296e-01   -4,859447777e-01
     5766000000    4,239165187e-01   -4,926203787e-01
     5767000000    4,265865684e-01   -4,951217175e-01
     5768000000    3,994685709e-01   -4,997163713e-01
     5769000000    3,976346552e-01   -5,011478662e-01
     5770000000    3,926883340e-01   -4,935961366e-01
     5771000000    3,778621852e-01   -5,038089156e-01
     5772000000    3,696691990e-01   -5,036836267e-01
     5773000000    3,524591029e-01   -5,045025945e-01
     5774000000    3,397944868e-01   -5,079344511e-01
     5775000000    3,413837552e-01   -4,976216853e-01
     5776000000    3,261632621e-01   -5,036876798e-01
     5777000000    3,173640668e-01   -5,067224503e-01
     5778000000    2,976625860e-01   -5,060761571e-01
     5779000000    2,907803953e-01   -5,041933656e-01
     5780000000    2,937949598e-01   -4,933718145e-01
     5781000000    2,683517933e-01   -5,043411255e-01
     5782000000    2,690105140e-01   -4,956348836e-01
     5783000000    2,440434694e-01   -5,055899620e-01
     5784000000    2,364627868e-01   -4,971135259e-01
     5785000000    2,435906827e-01   -4,914483726e-01
     5786000000    2,178371400e-01   -4,987416267e-01
     5787000000    2,078443468e-01   -4,967339337e-01
     5788000000    1,952912807e-01   -4,948640466e-01
     5789000000    1,902202368e-01   -4,897893667e-01
     5790000000    1,915428787e-01   -4,796406925e-01
     5791000000    1,636707634e-01   -4,883108735e-01
     5792000000    1,539120972e-01   -4,837622941e-01
     5793000000    1,461810470e-01   -4,754991829e-01
     5794000000    1,350485533e-01   -4,756249785e-01
     5795000000    1,342261881e-01   -4,733053744e-01
     5796000000    1,128332242e-01   -4,698846638e-01
     5797000000    9,688575566e-02   -4,558061063e-01
     5798000000    9,765289724e-02   -4,554335773e-01
     5799000000    8,540876955e-02   -4,534312785e-01
     5800000000    8,395013213e-02   -4,432905316e-01
     5801000000    6,498330086e-02   -4,407330453e-01
     5802000000    5,625382066e-02   -4,330069423e-01
     5803000000    5,327221006e-02   -4,258664548e-01
     5804000000    4,393012077e-02   -4,238836467e-01
     5805000000    3,430520743e-02   -3,976968527e-01
     5806000000    2,203503810e-02   -4,152674675e-01
     5807000000    1,241701003e-02   -3,921323717e-01
     5808000000    1,463701390e-02   -3,929227889e-01
     5809000000    4,480965436e-03   -3,825425208e-01
     5810000000    3,226302564e-03   -3,754553795e-01
     5811000000   -1,055445708e-02   -3,740378618e-01
     5812000000   -1,795822941e-02   -3,597236872e-01
     5813000000   -1,079451572e-02   -3,609265983e-01
     5814000000   -2,460627072e-02   -3,498782516e-01
     5815000000   -2,782315202e-02   -3,324219286e-01
     5816000000   -2,947516367e-02   -3,430318534e-01
     5817000000   -3,972010314e-02   -3,255509436e-01
     5818000000   -3,647014126e-02   -3,147063255e-01
     5819000000   -4,737605527e-02   -3,183788359e-01
     5820000000   -4,610435292e-02   -3,069478571e-01
     5821000000   -5,388321728e-02   -3,066455722e-01
     5822000000   -5,933437869e-02   -3,037835658e-01
     5823000000   -5,333963782e-02   -2,908726037e-01
     5824000000   -6,730461121e-02   -2,843695879e-01
     5825000000   -7,101072371e-02   -2,832745314e-01
     5826000000   -7,429992408e-02   -2,727887630e-01
     5827000000   -7,916890830e-02   -2,697696388e-01
     5828000000   -7,710674405e-02   -2,529386580e-01
     5829000000   -8,433254808e-02   -2,590731978e-01
     5830000000   -9,538146853e-02   -2,396806777e-01
     5831000000   -8,893679082e-02   -2,518341243e-01
     5832000000   -9,705407917e-02   -2,286184877e-01
     5833000000   -1,029226929e-01   -2,210612446e-01
     5834000000   -9,336910397e-02   -2,405750304e-01
     5835000000   -1,060750484e-01   -2,083855420e-01
     5836000000   -1,061975360e-01   -2,098727673e-01
     5837000000   -1,059897318e-01   -2,142089009e-01
     5838000000   -1,131407768e-01   -1,832568645e-01
     5839000000   -1,126741171e-01   -1,930787265e-01
     5840000000   -1,178454906e-01   -1,782253981e-01
     5841000000   -1,148835942e-01   -1,749788970e-01
     5842000000   -1,094222739e-01   -1,854153574e-01
     5843000000   -1,215719730e-01   -1,525585949e-01
     5844000000   -1,191694364e-01   -1,581260115e-01
     5845000000   -1,140029281e-01   -1,569627225e-01
     5846000000   -1,186380014e-01   -1,392495334e-01
     5847000000   -1,225196570e-01   -1,333071142e-01
     5848000000   -1,183655933e-01   -1,336023211e-01
     5849000000   -1,226745546e-01   -1,228705421e-01
     5850000000   -1,186030656e-01   -1,247126833e-01
     5851000000   -1,268952638e-01   -1,028677672e-01
     5852000000   -1,188157946e-01   -1,131519005e-01
     5853000000   -1,192726418e-01   -9,612557292e-02
     5854000000   -1,145004481e-01   -9,785751998e-02
     5855000000   -1,199725345e-01   -8,260344714e-02
     5856000000   -1,161168888e-01   -8,200919628e-02
     5857000000   -1,106162593e-01   -7,763543725e-02
     5858000000   -1,125527546e-01   -7,640050352e-02
     5859000000   -1,152017191e-01   -5,613543093e-02
     5860000000   -1,082789302e-01   -5,770124123e-02
     5861000000   -1,061073095e-01   -5,966192856e-02
     5862000000   -1,045607477e-01   -4,709429666e-02
     5863000000   -1,044109240e-01   -3,910548240e-02
     5864000000   -9,546130151e-02   -4,650140926e-02
     5865000000   -1,020072177e-01   -2,768735029e-02
     5866000000   -9,650062770e-02   -3,063938767e-02
     5867000000   -8,747187257e-02   -2,641436271e-02
     5868000000   -9,572985023e-02   -1,294354815e-02
     5869000000   -8,874662220e-02   -9,737572633e-03
     5870000000   -8,556302637e-02   -5,291983485e-03
     5871000000   -8,277732879e-02   -2,674426883e-03
     5872000000   -7,589277625e-02    1,651583239e-03
     5873000000   -6,848906726e-02    1,303463243e-03
     5874000000   -6,856503338e-02    6,040679291e-03
     5875000000   -6,719400734e-02    1,450230274e-02
     5876000000   -6,332086772e-02    1,403011195e-02
     5877000000   -5,280800909e-02    1,738168113e-02
     5878000000   -5,288182944e-02    2,236983366e-02
     5879000000   -4,581300542e-02    2,026752941e-02
     5880000000   -4,286474735e-02    2,712418884e-02
     5881000000   -4,546767473e-02    3,245262802e-02
     5882000000   -3,669719025e-02    3,582123667e-02
     5883000000   -2,882468142e-02    3,308808804e-02
     5884000000   -2,747965045e-02    3,544240817e-02
     5885000000   -1,525190659e-02    3,492543474e-02
     5886000000   -1,733101346e-02    3,996699303e-02
     5887000000    5,038585514e-04    3,757082671e-02
     5888000000   -6,415392272e-03    4,194971174e-02
     5889000000   -1,146107726e-02    4,504038393e-02
     5890000000    5,180183798e-03    4,141319916e-02
     5891000000    3,333125263e-03    4,411332309e-02
     5892000000    1,356903743e-02    4,658499733e-02
     5893000000    1,138384826e-02    4,933129251e-02
     5894000000    9,200831875e-03    4,663708806e-02
     5895000000    2,870775573e-02    4,886927828e-02
     5896000000    2,705608122e-02    4,949497432e-02
     5897000000    3,549228981e-02    5,083270371e-02
     5898000000    3,188264370e-02    5,040709674e-02
     5899000000    3,223668039e-02    5,191054940e-02
     5900000000    4,886399582e-02    5,186135322e-02
     5901000000    4,597146809e-02    5,195693672e-02
     5902000000    5,555254593e-02    5,812544003e-02
     5903000000    5,650151521e-02    5,311711505e-02
     5904000000    5,022968352e-02    5,478581414e-02
     5905000000    7,632724941e-02    5,933759362e-02
     5906000000    7,086557150e-02    5,500883982e-02
     5907000000    7,783898711e-02    6,005528942e-02
     5908000000    7,885280997e-02    5,723325163e-02
     5909000000    7,901715487e-02    5,921532214e-02
     5910000000    9,490654618e-02    5,727555975e-02
     5911000000    8,916933089e-02    5,236569420e-02
     5912000000    9,837565571e-02    5,984407291e-02
     5913000000    1,027078256e-01    5,613659695e-02
     5914000000    1,049943641e-01    5,574022233e-02
     5915000000    1,204072833e-01    5,897457898e-02
     5916000000    1,225737631e-01    6,041492894e-02
     5917000000    1,170865521e-01    5,697460100e-02
     5918000000    1,255496740e-01    5,522227287e-02
     5919000000    1,319221258e-01    5,509457365e-02
     5920000000    1,395803541e-01    5,840187520e-02
     5921000000    1,503624469e-01    6,247799471e-02
     5922000000    1,467427760e-01    6,080688909e-02
     5923000000    1,558075845e-01    5,376426131e-02
     5924000000    1,579217911e-01    5,195586756e-02
     5925000000    1,715587974e-01    6,136311591e-02
     5926000000    1,742408425e-01    6,569511443e-02
     5927000000    1,739558876e-01    5,262842402e-02
     5928000000    1,824328601e-01    4,985039309e-02
     5929000000    1,888062507e-01    4,431670532e-02
     5930000000    1,960603148e-01    5,695207044e-02
     5931000000    2,008642554e-01    4,948682711e-02
     5932000000    1,990895867e-01    5,147504434e-02
     5933000000    2,126944661e-01    4,856963083e-02
     5934000000    2,166608572e-01    4,850251600e-02
     5935000000    2,233879715e-01    4,383719340e-02
     5936000000    2,284300774e-01    4,923808575e-02
     5937000000    2,278141677e-01    4,172890633e-02
     5938000000    2,433477789e-01    4,404804856e-02
     5939000000    2,469258606e-01    4,909394681e-02
     5940000000    2,506640553e-01    3,615740687e-02
     5941000000    2,621458769e-01    2,842534706e-02
     5942000000    2,583020031e-01    3,564835712e-02
     5943000000    2,721170187e-01    3,853602707e-02
     5944000000    2,782855928e-01    2,612783760e-02
     5945000000    2,762160003e-01    3,160014376e-02
     5946000000    2,856956422e-01    2,223937400e-02
     5947000000    2,877232432e-01    1,830794849e-02
     5948000000    2,975194752e-01    3,108620457e-02
     5949000000    3,067359924e-01    1,370262168e-02
     5950000000    3,039860129e-01    1,859271899e-02
     5951000000    3,165863454e-01    1,070005540e-02
     5952000000    3,219431341e-01    5,394858308e-03
     5953000000    3,290043175e-01    1,125084143e-02
     5954000000    3,330946565e-01   -4,687440582e-03
     5955000000    3,345390856e-01   -1,809947193e-03
     5956000000    3,443052173e-01   -4,649689421e-03
     5957000000    3,505659401e-01   -8,335568011e-03
     5958000000    3,515025973e-01   -4,689025693e-03
     5959000000    3,619995117e-01   -2,296564169e-02
     5960000000    3,598418534e-01   -2,080769464e-02
     5961000000    3,702305257e-01   -3,482344374e-02
     5962000000    3,742144406e-01   -4,495875537e-02
     5963000000    3,773868382e-01   -2,379729226e-02
     5964000000    3,811181188e-01   -4,622841626e-02
     5965000000    3,847675622e-01   -4,996629059e-02
     5966000000    3,902008832e-01   -5,088644475e-02
     5967000000    3,970899880e-01   -6,396199018e-02
     5968000000    3,907931745e-01   -4,486407340e-02
     5969000000    3,987767398e-01   -6,641612202e-02
     5970000000    4,055770636e-01   -7,097493857e-02
     5971000000    4,058531821e-01   -7,036017627e-02
     5972000000    4,174742103e-01   -9,915305674e-02
     5973000000    4,122491479e-01   -7,660666853e-02
     5974000000    4,210378230e-01   -9,335990250e-02
     5975000000    4,219277799e-01   -9,492655843e-02
     5976000000    4,227401316e-01   -9,589961916e-02
     5977000000    4,397352636e-01   -1,176923737e-01
     5978000000    4,195374548e-01   -9,239514172e-02
     5979000000    4,259257913e-01   -1,014316827e-01
     5980000000    4,315544963e-01   -1,208552793e-01
     5981000000    4,314413071e-01   -1,183709428e-01
     5982000000    4,457958639e-01   -1,469767988e-01
     5983000000    4,437817633e-01   -1,329780072e-01
     5984000000    4,464421868e-01   -1,402077526e-01
     5985000000    4,452143013e-01   -1,383548826e-01
     5986000000    4,453111589e-01   -1,437110007e-01
     5987000000    4,412240684e-01   -1,428929567e-01
     5988000000    4,613227248e-01   -1,590938866e-01
     5989000000    4,611147940e-01   -1,563857198e-01
     5990000000    4,576562643e-01   -1,716298759e-01
     5991000000    4,575029016e-01   -1,763903350e-01
     5992000000    4,572750926e-01   -1,788164526e-01
     5993000000    4,653879404e-01   -1,915056109e-01
     5994000000    4,652292132e-01   -1,959545165e-01
     5995000000    4,581360817e-01   -1,952152103e-01
     5996000000    4,653196633e-01   -2,069512755e-01
     5997000000    4,678755403e-01   -2,110272497e-01
     5998000000    4,642661512e-01   -1,985038817e-01
     5999000000    4,678723216e-01   -2,207931429e-01
     6000000000    4,759491384e-01   -2,344295084e-01
     6001000000    4,645900428e-01   -2,297596335e-01
     6002000000    4,781985879e-01   -2,571587265e-01
     6003000000    4,655016661e-01   -2,330307364e-01
     6004000000    4,800320566e-01   -2,711561620e-01
     6005000000    4,817024767e-01   -2,716827691e-01
     6006000000    4,608738720e-01   -2,538193464e-01
     6007000000    4,729344547e-01   -2,832838893e-01
     6008000000    4,792597592e-01   -2,772168517e-01
     6009000000    4,745098054e-01   -2,985652089e-01
     6010000000    4,763822258e-01   -3,090899587e-01
     6011000000    4,665035009e-01   -3,000413477e-01
     6012000000    4,698216915e-01   -3,113930523e-01
     6013000000    4,694892168e-01   -3,143691719e-01
     6014000000    4,583528340e-01   -3,220725954e-01
     6015000000    4,624859989e-01   -3,420556188e-01
     6016000000    4,566760361e-01   -3,386876285e-01
     6017000000    4,536844194e-01   -3,500062525e-01
     6018000000    4,636069238e-01   -3,599771559e-01
     6019000000    4,351475835e-01   -3,610737920e-01
     6020000000    4,458581209e-01   -3,784864247e-01
     6021000000    4,410862029e-01   -3,762637079e-01
     6022000000    4,368784428e-01   -3,977845907e-01
     6023000000    4,406232834e-01   -4,006392658e-01
     6024000000    4,154160917e-01   -4,165507257e-01
     6025000000    4,159228504e-01   -4,295652807e-01
     6026000000    4,150150418e-01   -4,132833481e-01
     6027000000    4,061639607e-01   -4,304363132e-01
     6028000000    4,071917832e-01   -4,390471280e-01
     6029000000    3,871308565e-01   -4,453594387e-01
     6030000000    3,874804080e-01   -4,578738213e-01
     6031000000    3,776620626e-01   -4,471015334e-01
     6032000000    3,689559996e-01   -4,653759897e-01
     6033000000    3,702240586e-01   -4,717978835e-01
     6034000000    3,449669480e-01   -4,787994027e-01
     6035000000    3,440371752e-01   -4,860973656e-01
     6036000000    3,412415385e-01   -4,874105752e-01
     6037000000    3,234499693e-01   -4,956039190e-01
     6038000000    3,167204559e-01   -5,008027554e-01
     6039000000    2,969777286e-01   -5,077916384e-01
     6040000000    2,936345041e-01   -5,128915906e-01
     6041000000    2,931379080e-01   -5,076430440e-01
     6042000000    2,707958817e-01   -5,195859671e-01
     6043000000    2,597337663e-01   -5,222672224e-01
     6044000000    2,442637235e-01   -5,233013034e-01
     6045000000    2,304432839e-01   -5,318045616e-01
     6046000000    2,411147058e-01   -5,223212242e-01
     6047000000    2,131970972e-01   -5,349256992e-01
     6048000000    2,002051622e-01   -5,381536484e-01
     6049000000    1,829762012e-01   -5,367294550e-01
     6050000000    1,780018508e-01   -5,355589390e-01
     6051000000    1,783979088e-01   -5,314658880e-01
     6052000000    1,457815617e-01   -5,466533899e-01
     6053000000    1,485332251e-01   -5,360857248e-01
     6054000000    1,243015677e-01   -5,413274765e-01
     6055000000    1,145773977e-01   -5,382321477e-01
     6056000000    1,155085415e-01   -5,335255861e-01
     6057000000    8,095700294e-02   -5,427150130e-01
     6058000000    7,255797833e-02   -5,347779393e-01
     6059000000    6,709774584e-02   -5,358063579e-01
     6060000000    4,893376306e-02   -5,311486721e-01
     6061000000    5,021677166e-02   -5,309294462e-01
     6062000000    1,999372058e-02   -5,368229151e-01
     6063000000    3,154846840e-03   -5,323748589e-01
     6064000000    6,512570195e-03   -5,218542814e-01
     6065000000   -1,497042552e-02   -5,249229074e-01
     6066000000   -1,049913839e-02   -5,026893020e-01
     6067000000   -4,132851958e-02   -5,201719403e-01
     6068000000   -5,521811917e-02   -5,077896118e-01
     6069000000   -5,580383912e-02   -5,090640187e-01
     6070000000   -7,775098830e-02   -5,088666081e-01
     6071000000   -7,835477591e-02   -4,943242371e-01
     6072000000   -1,065894365e-01   -5,088472962e-01
     6073000000   -1,142759919e-01   -4,821105599e-01
     6074000000   -1,137673184e-01   -4,927898943e-01
     6075000000   -1,353513449e-01   -4,787623286e-01
     6076000000   -1,423323303e-01   -4,702479839e-01
     6077000000   -1,580734849e-01   -4,722684920e-01
     6078000000   -1,726150513e-01   -4,561010897e-01
     6079000000   -1,686997861e-01   -4,456679821e-01
     6080000000   -1,958430856e-01   -4,468030632e-01
     6081000000   -1,964007616e-01   -4,282581508e-01
     6082000000   -2,126367092e-01   -4,394245446e-01
     6083000000   -2,258345485e-01   -4,230140746e-01
     6084000000   -2,231390774e-01   -4,148866832e-01
     6085000000   -2,398414463e-01   -4,103571177e-01
     6086000000   -2,514527738e-01   -3,930881321e-01
     6087000000   -2,609119713e-01   -3,947888613e-01
     6088000000   -2,745487988e-01   -3,670071065e-01
     6089000000   -2,698339820e-01   -3,712138236e-01
     6090000000   -2,898209989e-01   -3,719606996e-01
     6091000000   -2,997081280e-01   -3,442927897e-01
     6092000000   -3,049257696e-01   -3,482511938e-01
     6093000000   -3,134588301e-01   -3,271928728e-01
     6094000000   -3,112338781e-01   -3,269596994e-01
     6095000000   -3,272900879e-01   -3,220661879e-01
     6096000000   -3,368771970e-01   -3,011753857e-01
     6097000000   -3,436164856e-01   -3,031954169e-01
     6098000000   -3,492399454e-01   -2,806378007e-01
     6099000000   -3,498629928e-01   -2,732983232e-01
     6100000000   -3,615246117e-01   -2,785259485e-01
     6101000000   -3,650787473e-01   -2,521410882e-01
     6102000000   -3,676348925e-01   -2,552666962e-01
     6103000000   -3,781956434e-01   -2,385522425e-01
     6104000000   -3,800231814e-01   -2,358103842e-01
     6105000000   -3,909098506e-01   -2,314289659e-01
     6106000000   -3,942849636e-01   -1,963449568e-01
     6107000000   -3,915412426e-01   -2,071771622e-01
     6108000000   -3,983774185e-01   -1,951490343e-01
     6109000000   -4,049372971e-01   -1,543640196e-01
     6110000000   -4,042697549e-01   -1,686194986e-01
     6111000000   -4,086534381e-01   -1,603067219e-01
     6112000000   -4,099177122e-01   -1,429295391e-01
     6113000000   -4,143655300e-01   -1,326032877e-01
     6114000000   -4,155884683e-01   -1,239618436e-01
     6115000000   -4,191272855e-01   -1,199467853e-01
     6116000000   -4,229977727e-01   -1,134544611e-01
     6117000000   -4,211144149e-01   -1,024852172e-01
     6118000000   -4,246078432e-01   -9,680797160e-02
     6119000000   -4,250949621e-01   -7,227397710e-02
     6120000000   -4,267944396e-01   -6,556073576e-02
     6121000000   -4,240062535e-01   -5,406053364e-02
     6122000000   -4,316979945e-01   -5,203046277e-02
     6123000000   -4,274476469e-01   -5,822969228e-02
     6124000000   -4,305233955e-01   -8,757679723e-03
     6125000000   -4,307266772e-01   -4,323905334e-02
     6126000000   -4,288016260e-01   -2,158781700e-02
     6127000000   -4,328910112e-01   -8,005664684e-03
     6128000000   -4,268959761e-01    4,540240392e-03
     6129000000   -4,265334904e-01    4,714041017e-03
     6130000000   -4,293332398e-01    1,717606932e-02
     6131000000   -4,258787632e-01    1,968038641e-02
     6132000000   -4,307797253e-01    3,611586988e-02
     6133000000   -4,233248532e-01    5,006640777e-02
     6134000000   -4,221490920e-01    5,770508572e-02
     6135000000   -4,252919555e-01    4,541107640e-02
     6136000000   -4,205714762e-01    6,749118119e-02
     6137000000   -4,264186919e-01    6,246384978e-02
     6138000000   -4,136930406e-01    5,913050100e-02
     6139000000   -4,123375118e-01    1,097907349e-01
     6140000000   -4,171161354e-01    7,909423858e-02
     6141000000   -4,088814855e-01    9,740589559e-02
     6142000000   -4,168808758e-01    1,133391112e-01
     6143000000   -4,036045372e-01    9,201230854e-02
     6144000000   -4,048726559e-01    1,291127056e-01
     6145000000   -4,098843336e-01    1,206463501e-01
     6146000000   -4,025251865e-01    1,231921315e-01
     6147000000   -4,049489200e-01    1,381008178e-01
     6148000000   -3,964858353e-01    1,416954249e-01
     6149000000   -3,918844163e-01    1,469405144e-01
     6150000000   -3,979611099e-01    1,457658112e-01
     6151000000   -3,906599283e-01    1,618964672e-01
     6152000000   -3,899089992e-01    1,613213867e-01
     6153000000   -3,789033592e-01    1,630959213e-01
     6154000000   -3,812963665e-01    1,799199581e-01
     6155000000   -3,919915259e-01    1,804495752e-01
     6156000000   -3,776534796e-01    1,842224151e-01
     6157000000   -3,734145463e-01    1,888770163e-01
     6158000000   -3,676714003e-01    1,966284513e-01
     6159000000   -3,642136157e-01    2,016205192e-01
     6160000000   -3,775832653e-01    1,929905862e-01
     6161000000   -3,610877395e-01    2,115579098e-01
     6162000000   -3,573141396e-01    2,243643850e-01
     6163000000   -3,491116762e-01    2,125352621e-01
     6164000000   -3,485045135e-01    2,270320058e-01
     6165000000   -3,571203649e-01    2,200507671e-01
     6166000000   -3,401685059e-01    2,344228178e-01
     6167000000   -3,357226551e-01    2,317431718e-01
     6168000000   -3,292647302e-01    2,338859737e-01
     6169000000   -3,353732526e-01    2,387612611e-01
     6170000000   -3,465685248e-01    2,403415740e-01
     6171000000   -3,227852583e-01    2,472152561e-01
     6172000000   -3,198593259e-01    2,578018904e-01
     6173000000   -3,185401857e-01    2,527432442e-01
     6174000000   -3,134583831e-01    2,591058612e-01
     6175000000   -3,218776882e-01    2,597926557e-01
     6176000000   -3,083268106e-01    2,651264369e-01
     6177000000   -3,010928631e-01    2,715322971e-01
     6178000000   -3,060911000e-01    2,658030093e-01
     6179000000   -2,967669368e-01    2,755517364e-01
     6180000000   -2,977465391e-01    2,740992904e-01
     6181000000   -2,835858464e-01    2,774241567e-01
     6182000000   -2,854964435e-01    2,854134440e-01
     6183000000   -2,860883772e-01    2,768062949e-01
     6184000000   -2,800857723e-01    2,872162461e-01
     6185000000   -2,846698463e-01    2,892344594e-01
     6186000000   -2,651856244e-01    2,957068384e-01
     6187000000   -2,636983693e-01    2,991711795e-01
     6188000000   -2,770981193e-01    2,877634168e-01
     6189000000   -2,571326792e-01    2,990801334e-01
     6190000000   -2,624842525e-01    3,019837141e-01
     6191000000   -2,477705181e-01    3,094001710e-01
     6192000000   -2,444901764e-01    3,124116659e-01
     6193000000   -2,510674894e-01    3,011283576e-01
     6194000000   -2,372337729e-01    3,157421350e-01
     6195000000   -2,368765622e-01    3,165355325e-01
     6196000000   -2,248722911e-01    3,165874183e-01
     6197000000   -2,253974676e-01    3,216685057e-01
     6198000000   -2,311492562e-01    3,121178448e-01
     6199000000   -2,127749026e-01    3,246927857e-01
     6200000000   -2,134412080e-01    3,236892819e-01
     6201000000   -2,080566436e-01    3,240113556e-01
     6202000000   -1,989436150e-01    3,321919739e-01
     6203000000   -2,022538930e-01    3,236442804e-01
     6204000000   -1,886649728e-01    3,326452672e-01
     6205000000   -1,828419715e-01    3,391139507e-01
     6206000000   -1,810415685e-01    3,272143900e-01
     6207000000   -1,772750020e-01    3,359619379e-01
     6208000000   -1,766521484e-01    3,318533003e-01
     6209000000   -1,631630361e-01    3,450196981e-01
     6210000000   -1,593072265e-01    3,429538310e-01
     6211000000   -1,575180441e-01    3,392936885e-01
     6212000000   -1,531623602e-01    3,367934823e-01
     6213000000   -1,504870057e-01    3,387081623e-01
     6214000000   -1,403743029e-01    3,486029208e-01
     6215000000   -1,320700347e-01    3,499571979e-01
     6216000000   -1,346381605e-01    3,412143588e-01
     6217000000   -1,271484047e-01    3,476367593e-01
     6218000000   -1,190757081e-01    3,423023522e-01
     6219000000   -1,123395041e-01    3,486186564e-01
     6220000000   -1,096084490e-01    3,497602940e-01
     6221000000   -1,116824746e-01    3,426325619e-01
     6222000000   -1,017293334e-01    3,504879773e-01
     6223000000   -9,502591193e-02    3,511118889e-01
     6224000000   -8,862425387e-02    3,594731987e-01
     6225000000   -8,161944151e-02    3,509159684e-01
     6226000000   -8,212911338e-02    3,491165936e-01
     6227000000   -7,293128222e-02    3,554591835e-01
     6228000000   -6,892848015e-02    3,530368209e-01
     6229000000   -5,890938267e-02    3,641335070e-01
     6230000000   -5,882806331e-02    3,613798320e-01
     6231000000   -5,587139353e-02    3,496051431e-01
     6232000000   -4,830244184e-02    3,571888804e-01
     6233000000   -4,120646045e-02    3,612280488e-01
     6234000000   -4,064669833e-02    3,650195897e-01
     6235000000   -3,575545549e-02    3,575734198e-01
     6236000000   -2,761131711e-02    3,456711173e-01
     6237000000   -2,257384174e-02    3,609307706e-01
     6238000000   -1,480933558e-02    3,602670431e-01
     6239000000   -1,392533816e-02    3,581145704e-01
     6240000000   -3,318580799e-03    3,601588309e-01
     6241000000   -5,610445514e-04    3,526994288e-01
     6242000000   -1,298933290e-03    3,677395284e-01
     6243000000    9,007694200e-03    3,674874008e-01
     6244000000    9,508292191e-03    3,591391146e-01
     6245000000    1,918732002e-02    3,592888713e-01
     6246000000    2,474573068e-02    3,593964279e-01
     6247000000    2,844866551e-02    3,645938039e-01
     6248000000    3,614770994e-02    3,650734723e-01
     6249000000    3,377932683e-02    3,635644913e-01
     6250000000    4,613534361e-02    3,587951064e-01
     6251000000    6,228127331e-02    3,488674164e-01
     6252000000    5,037713796e-02    3,733431399e-01
     6253000000    6,163269281e-02    3,645926714e-01
     6254000000    6,049980223e-02    3,569006920e-01
     6255000000    6,543464214e-02    3,669672608e-01
     6256000000    8,609146625e-02    3,599297404e-01
     6257000000    7,565269619e-02    3,749949932e-01
     6258000000    7,895606756e-02    3,706503510e-01
     6259000000    9,382468462e-02    3,535414040e-01
     6260000000    9,452988207e-02    3,639949560e-01
     6261000000    1,142143533e-01    3,522425890e-01
     6262000000    1,008067504e-01    3,687168062e-01
     6263000000    1,132858545e-01    3,645747304e-01
     6264000000    1,206630692e-01    3,585014343e-01
     6265000000    1,192220971e-01    3,653104901e-01
     6266000000    1,312052459e-01    3,577075303e-01
     6267000000    1,328454465e-01    3,589992523e-01
     6268000000    1,319398582e-01    3,664201200e-01
     6269000000    1,475644410e-01    3,508847952e-01
     6270000000    1,446049809e-01    3,637921512e-01
     6271000000    1,560045630e-01    3,635161519e-01
     6272000000    1,485879719e-01    3,581732213e-01
     6273000000    1,673226953e-01    3,580364585e-01
     6274000000    1,711501181e-01    3,507571816e-01
     6275000000    1,711122692e-01    3,571877182e-01
     6276000000    1,804643124e-01    3,594768643e-01
     6277000000    1,743836254e-01    3,558042645e-01
     6278000000    1,830071956e-01    3,565673828e-01
     6279000000    1,858374625e-01    3,571880460e-01
     6280000000    1,921720207e-01    3,568205237e-01
     6281000000    2,092133909e-01    3,573572040e-01
     6282000000    1,945074648e-01    3,574090004e-01
     6283000000    2,194569856e-01    3,474424183e-01
     6284000000    2,147052437e-01    3,521800935e-01
     6285000000    2,064217180e-01    3,575799167e-01
     6286000000    2,281296998e-01    3,542542160e-01
     6287000000    2,299061865e-01    3,451050520e-01
     6288000000    2,184593678e-01    3,510738015e-01
     6289000000    2,480125874e-01    3,533883095e-01
     6290000000    2,276621014e-01    3,520776927e-01
     6291000000    2,452367842e-01    3,503724039e-01
     6292000000    2,300290912e-01    3,545556366e-01
     6293000000    2,565107942e-01    3,469797373e-01
     6294000000    2,741046846e-01    3,472482264e-01
     6295000000    2,345674485e-01    3,517713845e-01
     6296000000    2,687892914e-01    3,484260142e-01
     6297000000    2,578152120e-01    3,506195843e-01
     6298000000    2,659398019e-01    3,494875729e-01
     6299000000    2,834008038e-01    3,478848934e-01
     6300000000    2,550880611e-01    3,523258269e-01
