! NanoVNA-App
! Date: 2026-02-07 22:19:50
! Start: 5,3GHz Stop: 6,3GHz Points: 1001
! S-Parameter data: F S11
# Hz S RI R 50
!     Frequency           S11_Real           S11_Imag
     5300000000    7,461452484e-02   -1,382357329e-01
     5301000000    7,609436661e-02   -1,367402971e-01
     5302000000    7,895883173e-02   -1,300869733e-01
     5303000000    7,858903706e-02   -1,309892684e-01
     5304000000    7,743086666e-02   -1,344094276e-01
     5305000000    7,219631970e-02   -1,364350766e-01
     5306000000    7,955098897e-02   -1,274064630e-01
     5307000000    8,230569214e-02   -1,266788989e-01
     5308000000    8,034498245e-02   -1,282780170e-01
     5309000000    7,962745428e-02   -1,266303211e-01
     5310000000    8,252129704e-02   -1,267550886e-01
     5311000000    8,187101036e-02   -1,247190312e-01
     5312000000    8,416091651e-02   -1,221916825e-01
     5313000000    7,826200128e-02   -1,229374930e-01
     5314000000    8,078628033e-02   -1,210531890e-01
     5315000000    7,970539480e-02   -1,190532073e-01
     5316000000    8,702590317e-02   -1,200564206e-01
     5317000000    8,097592741e-02   -1,189968064e-01
     5318000000    7,845447958e-02   -1,205110103e-01
     5319000000    9,175421298e-02   -1,094712988e-01
     5320000000    8,565657586e-02   -1,158580109e-01
     5321000000    8,883248270e-02   -1,091063842e-01
     5322000000    8,838485926e-02   -1,094439849e-01
     5323000000    8,555911481e-02   -1,101125404e-01
     5324000000    8,446893096e-02   -1,129533723e-01
     5325000000    9,685342014e-02   -1,005595103e-01
     5326000000    8,901594579e-02   -1,066098884e-01
     5327000000    8,862835169e-02   -1,031820700e-01
     5328000000    9,286116809e-02   -1,016166955e-01
     5329000000    9,338798374e-02   -1,006360650e-01
     5330000000    9,417217970e-02   -1,004051045e-01
     5331000000    9,863382578e-02   -9,587305039e-02
     5332000000    9,178739041e-02   -9,682591259e-02
     5333000000    9,262286127e-02   -9,683524072e-02
     5334000000    9,926774353e-02   -8,970635384e-02
     5335000000    9,179707617e-02   -9,880083054e-02
     5336000000    1,017352641e-01   -8,595802635e-02
     5337000000    1,004544571e-01   -8,688832819e-02
     5338000000    9,261369705e-02   -9,954132885e-02
     5339000000    1,027962118e-01   -8,270486444e-02
     5340000000    9,343551099e-02   -8,820517361e-02
     5341000000    1,053747982e-01   -7,814557850e-02
     5342000000    9,822779894e-02   -8,655817062e-02
     5343000000    9,601871669e-02   -8,624633402e-02
     5344000000    1,139341220e-01   -7,026574016e-02
     5345000000    9,474587440e-02   -8,384192735e-02
     5346000000    1,089345738e-01   -7,420224696e-02
     5347000000    1,008503512e-01   -8,002244681e-02
     5348000000    1,031487733e-01   -7,876176387e-02
     5349000000    1,098070517e-01   -6,768412888e-02
     5350000000    1,076928377e-01   -7,100635022e-02
     5351000000    1,056575924e-01   -7,282760739e-02
     5352000000    1,109960675e-01   -6,259676814e-02
     5353000000    9,966009855e-02   -7,659845799e-02
     5354000000    1,135991812e-01   -6,141802296e-02
     5355000000    1,107609197e-01   -6,837746501e-02
     5356000000    1,095148772e-01   -6,551300734e-02
     5357000000    1,115613207e-01   -6,266043335e-02
     5358000000    1,133093387e-01   -6,291002780e-02
     5359000000    1,179740280e-01   -5,313468724e-02
     5360000000    1,131992266e-01   -6,075872481e-02
     5361000000    1,140596047e-01   -6,151495501e-02
     5362000000    1,153569296e-01   -5,789962038e-02
     5363000000    1,148781925e-01   -5,826294795e-02
     5364000000    1,194315329e-01   -5,221201107e-02
     5365000000    1,215267405e-01   -5,870531499e-02
     5366000000    1,185276136e-01   -5,513918772e-02
     5367000000    1,174365729e-01   -5,110096559e-02
     5368000000    1,196565628e-01   -5,238410085e-02
     5369000000    1,253143996e-01   -4,409515113e-02
     5370000000    1,213423684e-01   -5,132343620e-02
     5371000000    1,230067685e-01   -4,861214757e-02
     5372000000    1,252975613e-01   -4,259187728e-02
     5373000000    1,234681830e-01   -4,866233468e-02
     5374000000    1,277905107e-01   -4,116416350e-02
     5375000000    1,265800744e-01   -4,371251166e-02
     5376000000    1,268851012e-01   -4,963144660e-02
     5377000000    1,260378659e-01   -3,739826009e-02
     5378000000    1,293217242e-01   -3,880155832e-02
     5379000000    1,302446425e-01   -3,709680215e-02
     5380000000    1,257857531e-01   -3,958414122e-02
     5381000000    1,269788295e-01   -4,375667870e-02
     5382000000    1,290761679e-01   -3,400343657e-02
     5383000000    1,328302324e-01   -3,560865670e-02
     5384000000    1,320767999e-01   -3,619560972e-02
     5385000000    1,315321177e-01   -3,354819864e-02
     5386000000    1,316458136e-01   -3,338063508e-02
     5387000000    1,326099038e-01   -2,531558275e-02
     5388000000    1,317769289e-01   -3,124740347e-02
     5389000000    1,336122751e-01   -2,992628887e-02
     5390000000    1,342783868e-01   -2,743080817e-02
     5391000000    1,338665038e-01   -2,787649259e-02
     5392000000    1,372954249e-01   -1,702510193e-02
     5393000000    1,417068839e-01   -2,024818957e-02
     5394000000    1,373853683e-01   -2,865523845e-02
     5395000000    1,369492561e-01   -2,102285624e-02
     5396000000    1,386573166e-01   -2,025648206e-02
     5397000000    1,407716870e-01   -1,699980348e-02
     5398000000    1,418415308e-01   -1,605307870e-02
     5399000000    1,405137926e-01   -1,997147501e-02
     5400000000    1,414879709e-01   -9,224551730e-03
     5401000000    1,427573264e-01   -1,338152215e-02
     5402000000    1,448630244e-01   -7,915407419e-03
     5403000000    1,446815878e-01   -1,322454959e-02
     5404000000    1,463949978e-01   -1,092375629e-02
     5405000000    1,455209553e-01   -5,303181708e-03
     5406000000    1,478281021e-01   -3,746218979e-03
     5407000000    1,522118002e-01   -2,089544199e-03
     5408000000    1,501359791e-01   -5,164493807e-03
     5409000000    1,516469568e-01   -3,208123147e-03
     5410000000    1,483803540e-01    4,844260402e-03
     5411000000    1,548534632e-01    5,787322298e-04
     5412000000    1,582250893e-01    7,102346048e-03
     5413000000    1,578515768e-01    5,961976014e-03
     5414000000    1,575568616e-01    5,726177245e-03
     5415000000    1,574897468e-01    8,412495255e-03
     5416000000    1,602412313e-01    9,545166977e-03
     5417000000    1,650940925e-01    1,276380196e-02
     5418000000    1,621534973e-01    9,100410156e-03
     5419000000    1,649551839e-01    9,621313773e-03
     5420000000    1,610304862e-01    2,132435329e-02
     5421000000    1,691527665e-01    1,596659608e-02
     5422000000    1,711556762e-01    1,767530106e-02
     5423000000    1,676029712e-01    2,225099877e-02
     5424000000    1,714887023e-01    2,028965577e-02
     5425000000    1,699661762e-01    2,558184788e-02
     5426000000    1,744477153e-01    2,534390241e-02
     5427000000    1,749434322e-01    2,305797860e-02
     5428000000    1,742305011e-01    2,732348442e-02
     5429000000    1,764401048e-01    2,410141192e-02
     5430000000    1,780077964e-01    2,909802087e-02
     5431000000    1,794458330e-01    3,093497083e-02
     5432000000    1,826673299e-01    3,208804876e-02
     5433000000    1,822292656e-01    3,268000111e-02
     5434000000    1,841233075e-01    3,367446363e-02
     5435000000    1,850856096e-01    3,735557199e-02
     5436000000    1,854739040e-01    3,636050597e-02
     5437000000    1,867770553e-01    3,547001258e-02
     5438000000    1,871858388e-01    3,879157081e-02
     5439000000    1,937575787e-01    3,936591744e-02
     5440000000    1,898762882e-01    4,582496360e-02
     5441000000    1,950340420e-01    4,104905576e-02
     5442000000    1,955212206e-01    4,503557831e-02
     5443000000    1,922089458e-01    4,566194862e-02
     5444000000    1,970632821e-01    4,977038503e-02
     5445000000    2,010694146e-01    5,061504990e-02
     5446000000    2,003777772e-01    5,120002851e-02
     5447000000    2,034564614e-01    4,685535282e-02
     5448000000    1,997822374e-01    5,549406260e-02
     5449000000    2,027736157e-01    5,357766151e-02
     5450000000    2,064199746e-01    5,664853007e-02
     5451000000    2,052249312e-01    5,798514187e-02
     5452000000    2,074402124e-01    5,968147889e-02
     5453000000    2,085004896e-01    5,702846125e-02
     5454000000    2,107107639e-01    6,035217270e-02
     5455000000    2,117527276e-01    6,250813603e-02
     5456000000    2,142046690e-01    6,151729450e-02
     5457000000    2,128199786e-01    6,391763687e-02
     5458000000    2,151202261e-01    6,552489102e-02
     5459000000    2,169903964e-01    6,689514965e-02
     5460000000    2,188948095e-01    6,851809472e-02
     5461000000    2,170174569e-01    6,409518421e-02
     5462000000    2,212224305e-01    6,766291708e-02
     5463000000    2,231828719e-01    6,928259134e-02
     5464000000    2,201947421e-01    7,455207407e-02
     5465000000    2,250251025e-01    7,200399041e-02
     5466000000    2,224717587e-01    7,275230438e-02
     5467000000    2,260269672e-01    7,264289260e-02
     5468000000    2,265606225e-01    7,622171938e-02
     5469000000    2,308356613e-01    7,900559902e-02
     5470000000    2,290550321e-01    7,534662634e-02
     5471000000    2,309502065e-01    7,651388645e-02
     5472000000    2,279558331e-01    8,040038496e-02
     5473000000    2,374820113e-01    7,895952463e-02
     5474000000    2,319663763e-01    8,200656623e-02
     5475000000    2,365166545e-01    8,425553143e-02
     5476000000    2,363409698e-01    8,150682598e-02
     5477000000    2,398936450e-01    8,290333301e-02
     5478000000    2,381120920e-01    8,647075295e-02
     5479000000    2,391068339e-01    8,764711767e-02
     5480000000    2,408140451e-01    8,775848895e-02
     5481000000    2,429797351e-01    8,627739549e-02
     5482000000    2,433026433e-01    8,853691816e-02
     5483000000    2,474942505e-01    8,892852813e-02
     5484000000    2,446609586e-01    9,100452811e-02
     5485000000    2,475662082e-01    9,172103554e-02
     5486000000    2,495424598e-01    9,114889801e-02
     5487000000    2,477267534e-01    9,367576241e-02
     5488000000    2,516795993e-01    9,473541379e-02
     5489000000    2,464320809e-01    9,549162537e-02
     5490000000    2,523080111e-01    9,599422663e-02
     5491000000    2,577870190e-01    9,528663009e-02
     5492000000    2,501753271e-01    9,930492193e-02
     5493000000    2,588335872e-01    9,852974862e-02
     5494000000    2,585317492e-01    9,852132946e-02
     5495000000    2,556754649e-01    1,001783386e-01
     5496000000    2,631950676e-01    1,031803414e-01
     5497000000    2,605517209e-01    1,029336080e-01
     5498000000    2,618623972e-01    1,012477428e-01
     5499000000    2,634922266e-01    1,027069911e-01
     5500000000    2,659963369e-01    1,046904996e-01
     5501000000    2,694210112e-01    1,039277241e-01
     5502000000    2,655179799e-01    1,049683616e-01
     5503000000    2,677988708e-01    1,072518080e-01
     5504000000    2,717108428e-01    1,071623564e-01
     5505000000    2,689688802e-01    1,086235046e-01
     5506000000    2,795603275e-01    1,082999930e-01
     5507000000    2,713516653e-01    1,098669097e-01
     5508000000    2,751437426e-01    1,103609577e-01
     5509000000    2,775329947e-01    1,103396937e-01
     5510000000    2,768574953e-01    1,112408862e-01
     5511000000    2,823230326e-01    1,126003191e-01
     5512000000    2,778432667e-01    1,129938066e-01
     5513000000    2,805072367e-01    1,133638620e-01
     5514000000    2,836983204e-01    1,148353070e-01
     5515000000    2,836555839e-01    1,154018268e-01
     5516000000    2,881510854e-01    1,161957532e-01
     5517000000    2,823381126e-01    1,166605428e-01
     5518000000    2,885369360e-01    1,173155755e-01
     5519000000    2,933152616e-01    1,186357960e-01
     5520000000    2,896704376e-01    1,186505035e-01
     5521000000    2,928118408e-01    1,192304939e-01
     5522000000    2,902201116e-01    1,190217733e-01
     5523000000    2,914888561e-01    1,199276149e-01
     5524000000    3,018859625e-01    1,247956306e-01
     5525000000    2,962611318e-01    1,225907803e-01
     5526000000    3,033098280e-01    1,233649328e-01
     5527000000    2,965026796e-01    1,221404150e-01
     5528000000    2,994628549e-01    1,226834878e-01
     5529000000    3,090646863e-01    1,278935224e-01
     5530000000    3,022038639e-01    1,242074072e-01
     5531000000    3,058264554e-01    1,264885217e-01
     5532000000    3,055931032e-01    1,264912188e-01
     5533000000    3,070986569e-01    1,281665415e-01
     5534000000    3,160527647e-01    1,310098469e-01
     5535000000    3,112009168e-01    1,276946366e-01
     5536000000    3,119838834e-01    1,264800727e-01
     5537000000    3,122656047e-01    1,289569587e-01
     5538000000    3,146059215e-01    1,293566674e-01
     5539000000    3,222206235e-01    1,342014223e-01
     5540000000    3,171085119e-01    1,309554130e-01
     5541000000    3,157167733e-01    1,272617280e-01
     5542000000    3,250551224e-01    1,334352940e-01
     5543000000    3,239777684e-01    1,325473785e-01
     5544000000    3,248013258e-01    1,339620948e-01
     5545000000    3,236007392e-01    1,303979754e-01
     5546000000    3,277237415e-01    1,303520948e-01
     5547000000    3,282072246e-01    1,369199902e-01
     5548000000    3,302689791e-01    1,319238693e-01
     5549000000    3,391248286e-01    1,344029456e-01
     5550000000    3,293974400e-01    1,317791343e-01
     5551000000    3,336589634e-01    1,300550699e-01
     5552000000    3,379244804e-01    1,384395808e-01
     5553000000    3,425171375e-01    1,367509216e-01
     5554000000    3,429903686e-01    1,338276267e-01
     5555000000    3,387630582e-01    1,320646405e-01
     5556000000    3,435965776e-01    1,344280690e-01
     5557000000    3,476948440e-01    1,418023109e-01
     5558000000    3,484870493e-01    1,367585212e-01
     5559000000    3,498030603e-01    1,355054826e-01
     5560000000    3,520942330e-01    1,335981488e-01
     5561000000    3,494173288e-01    1,318536699e-01
     5562000000    3,544993103e-01    1,417356282e-01
     5563000000    3,534612060e-01    1,349931806e-01
     5564000000    3,595909476e-01    1,307792664e-01
     5565000000    3,518760204e-01    1,343549341e-01
     5566000000    3,580304682e-01    1,304340065e-01
     5567000000    3,650787771e-01    1,381446570e-01
     5568000000    3,641789556e-01    1,309502125e-01
     5569000000    3,638946712e-01    1,323882788e-01
     5570000000    3,654104769e-01    1,322171241e-01
     5571000000    3,682265580e-01    1,323829889e-01
     5572000000    3,732603788e-01    1,412602067e-01
     5573000000    3,725911379e-01    1,334368438e-01
     5574000000    3,736540675e-01    1,264360547e-01
     5575000000    3,753167093e-01    1,325323731e-01
     5576000000    3,775906563e-01    1,285411865e-01
     5577000000    3,833696842e-01    1,363680214e-01
     5578000000    3,815340102e-01    1,259123832e-01
     5579000000    3,853435516e-01    1,224373057e-01
     5580000000    3,822087348e-01    1,291065365e-01
     5581000000    3,825018406e-01    1,251684576e-01
     5582000000    3,914638758e-01    1,321969479e-01
     5583000000    3,905938268e-01    1,229131520e-01
     5584000000    3,955973983e-01    1,197936907e-01
     5585000000    3,917522132e-01    1,304410398e-01
     5586000000    3,980555236e-01    1,246450245e-01
     5587000000    3,996120393e-01    1,228881404e-01
     5588000000    4,005371332e-01    1,227123812e-01
     5589000000    4,018863142e-01    1,153292730e-01
     5590000000    3,981376290e-01    1,294615120e-01
     5591000000    4,065547884e-01    1,180663928e-01
     5592000000    4,091313481e-01    1,212559715e-01
     5593000000    4,072563350e-01    1,141806766e-01
     5594000000    4,141998887e-01    1,078251973e-01
     5595000000    4,086674750e-01    1,249115169e-01
     5596000000    4,123085141e-01    1,227598786e-01
     5597000000    4,222181439e-01    1,145487279e-01
     5598000000    4,194142520e-01    1,183443740e-01
     5599000000    4,197244942e-01    1,116122007e-01
     5600000000    4,193305373e-01    1,191883832e-01
     5601000000    4,298436940e-01    1,112814993e-01
     5602000000    4,282272458e-01    1,102832109e-01
     5603000000    4,323716164e-01    1,139247343e-01
     5604000000    4,277009368e-01    1,058965921e-01
     5605000000    4,304531813e-01    1,151560545e-01
     5606000000    4,432270229e-01    1,016304642e-01
     5607000000    4,429237843e-01    1,055688858e-01
     5608000000    4,456804693e-01    1,035519317e-01
     5609000000    4,447109103e-01    1,028607637e-01
     5610000000    4,432702661e-01    1,124170497e-01
     5611000000    4,553815722e-01    9,742832184e-02
     5612000000    4,593736231e-01    9,570430219e-02
     5613000000    4,549548924e-01    1,000048295e-01
     5614000000    4,606363773e-01    8,971871436e-02
     5615000000    4,591411054e-01    1,100479290e-01
     5616000000    4,684945047e-01    9,263622016e-02
     5617000000    4,748083949e-01    7,797234505e-02
     5618000000    4,611573219e-01    1,004743129e-01
     5619000000    4,777285159e-01    8,803641796e-02
     5620000000    4,823274910e-01    9,549064934e-02
     5621000000    4,805130661e-01    9,077230096e-02
     5622000000    4,896589518e-01    8,368712664e-02
     5623000000    4,820237756e-01    9,213972837e-02
     5624000000    4,893550277e-01    8,338800073e-02
     5625000000    4,951874614e-01    8,947186172e-02
     5626000000    4,998514056e-01    7,331413031e-02
     5627000000    4,967768192e-01    7,373265177e-02
     5628000000    4,888795018e-01    8,970110118e-02
     5629000000    5,081710815e-01    6,523332745e-02
     5630000000    5,149521232e-01    6,625484675e-02
     5631000000    5,085611939e-01    7,610896230e-02
     5632000000    5,255289674e-01    5,922730640e-02
     5633000000    5,053912401e-01    8,215963095e-02
     5634000000    5,228962302e-01    6,493659317e-02
     5635000000    5,344476104e-01    5,080553144e-02
     5636000000    5,265472531e-01    5,384082347e-02
     5637000000    5,329737663e-01    5,961349979e-02
     5638000000    5,308057070e-01    5,670601130e-02
     5639000000    5,432069898e-01    4,714511335e-02
     5640000000    5,395812988e-01    4,932554811e-02
     5641000000    5,471034050e-01    4,367724061e-02
     5642000000    5,521293879e-01    3,934087604e-02
     5643000000    5,407565832e-01    5,066085234e-02
     5644000000    5,563680530e-01    4,325108230e-02
     5645000000    5,603439808e-01    2,054772340e-02
     5646000000    5,542780161e-01    4,213592783e-02
     5647000000    5,630392432e-01    2,902737074e-02
     5648000000    5,579114556e-01    3,800770268e-02
     5649000000    5,712499619e-01    2,592747100e-02
     5650000000    5,742433667e-01    2,371489070e-02
     5651000000    5,546270013e-01    3,612730280e-02
     5652000000    5,759356022e-01    6,759283133e-03
     5653000000    5,778844357e-01    7,856531069e-03
     5654000000    5,931001902e-01    3,177168779e-03
     5655000000    5,907258987e-01   -1,095034182e-03
     5656000000    5,681334138e-01    1,878646575e-02
     5657000000    5,969488621e-01   -6,200453267e-03
     5658000000    5,844681859e-01    7,721761242e-03
     5659000000    5,877717137e-01   -1,169574447e-03
     5660000000    6,112168431e-01   -2,306414768e-02
     5661000000    5,901177526e-01   -5,289318040e-03
     5662000000    6,058651209e-01   -2,508556284e-02
     5663000000    6,085777283e-01   -2,596517280e-02
     5664000000    5,999757648e-01   -1,136907376e-02
     5665000000    6,065402031e-01   -2,333095670e-02
     5666000000    5,974506736e-01   -1,968238130e-02
     5667000000    6,066327691e-01   -2,736781165e-02
     5668000000    6,238524318e-01   -4,484363273e-02
     5669000000    6,076896191e-01   -2,396851964e-02
     5670000000    6,177195907e-01   -4,717703164e-02
     5671000000    6,245002747e-01   -5,344254151e-02
     5672000000    6,134552360e-01   -4,038592428e-02
     5673000000    6,275269389e-01   -5,755145475e-02
     5674000000    6,203167439e-01   -5,158893019e-02
     5675000000    6,317932606e-01   -6,557010114e-02
     5676000000    6,218017936e-01   -6,030701473e-02
     5677000000    6,498822570e-01   -8,179146051e-02
     5678000000    6,342248917e-01   -6,671600044e-02
     5679000000    6,267936230e-01   -6,216357648e-02
     5680000000    6,407201886e-01   -8,303693682e-02
     5681000000    6,303142309e-01   -7,349314541e-02
     5682000000    6,354242563e-01   -7,718256116e-02
     5683000000    6,515541077e-01   -9,549816698e-02
     5684000000    6,269377470e-01   -7,453814894e-02
     5685000000    6,477543116e-01   -9,759818017e-02
     5686000000    6,407871246e-01   -9,065370262e-02
     5687000000    6,426351070e-01   -9,043620527e-02
     5688000000    6,517935991e-01   -9,942105412e-02
     5689000000    6,451537013e-01   -9,265604615e-02
     5690000000    6,512593627e-01   -1,072962508e-01
     5691000000    6,551321745e-01   -1,138969064e-01
     5692000000    6,469370127e-01   -9,724044800e-02
     5693000000    6,563380957e-01   -1,154226437e-01
     5694000000    6,497614980e-01   -1,118023768e-01
     5695000000    6,490725279e-01   -1,080989391e-01
     5696000000    6,672346592e-01   -1,328635812e-01
     5697000000    6,655452251e-01   -1,334585249e-01
     5698000000    6,756651402e-01   -1,404792368e-01
     5699000000    6,730322242e-01   -1,408469230e-01
     5700000000    6,574329138e-01   -1,289875954e-01
     5701000000    6,737185121e-01   -1,529998481e-01
     5702000000    6,727712750e-01   -1,463670433e-01
     5703000000    6,655296683e-01   -1,405861527e-01
     5704000000    6,818251610e-01   -1,562349945e-01
     5705000000    6,903373599e-01   -1,665009111e-01
     5706000000    6,752048135e-01   -1,636900157e-01
     5707000000    6,780629754e-01   -1,704504043e-01
     5708000000    6,958775520e-01   -1,909892559e-01
     5709000000    6,705588102e-01   -1,753020138e-01
     5710000000    6,867684126e-01   -1,860466897e-01
     5711000000    6,826676726e-01   -1,924134940e-01
     5712000000    6,774681807e-01   -2,061368525e-01
     5713000000    6,818208098e-01   -2,057317346e-01
     5714000000    6,946794391e-01   -2,205547541e-01
     5715000000    6,847137809e-01   -2,207160592e-01
     5716000000    6,977832317e-01   -2,360558361e-01
     5717000000    6,709082127e-01   -2,148597240e-01
     5718000000    6,895310283e-01   -2,408743501e-01
     5719000000    6,980925798e-01   -2,604304552e-01
     5720000000    6,709404588e-01   -2,441344261e-01
     5721000000    6,911805272e-01   -2,700432539e-01
     5722000000    6,870954037e-01   -2,692596614e-01
     5723000000    6,813901067e-01   -2,754795253e-01
     5724000000    6,931180358e-01   -2,886426449e-01
     5725000000    6,727117896e-01   -2,909771800e-01
     5726000000    6,762692332e-01   -2,975921631e-01
     5727000000    6,684919596e-01   -2,876755893e-01
     5728000000    6,783107519e-01   -3,148987591e-01
     5729000000    6,767787933e-01   -3,135037422e-01
     5730000000    6,596495509e-01   -3,195601404e-01
     5731000000    6,687703133e-01   -3,384574354e-01
     5732000000    6,548726559e-01   -3,269518316e-01
     5733000000    6,509439349e-01   -3,467945457e-01
     5734000000    6,573489308e-01   -3,493369520e-01
     5735000000    6,276025176e-01   -3,399679065e-01
     5736000000    6,473712325e-01   -3,694478273e-01
     5737000000    6,343371272e-01   -3,654276729e-01
     5738000000    6,362582445e-01   -3,709527254e-01
     5739000000    6,379593015e-01   -3,906893730e-01
     5740000000    6,244723797e-01   -3,849315047e-01
     5741000000    6,159009337e-01   -3,931145966e-01
     5742000000    6,175130606e-01   -3,890026212e-01
     5743000000    6,058227420e-01   -3,989634216e-01
     5744000000    6,138799191e-01   -4,158962667e-01
     5745000000    5,992391109e-01   -4,097104371e-01
     5746000000    5,917938352e-01   -4,195563197e-01
     5747000000    5,931503177e-01   -4,176650345e-01
     5748000000    5,819306970e-01   -4,251226485e-01
     5749000000    5,859304070e-01   -4,421596527e-01
     5750000000    5,641328096e-01   -4,331486821e-01
     5751000000    5,677267909e-01   -4,457721710e-01
     5752000000    5,706263781e-01   -4,442935586e-01
     5753000000    5,511375070e-01   -4,527509809e-01
     5754000000    5,523990393e-01   -4,634636641e-01
     5755000000    5,393062830e-01   -4,574269950e-01
     5756000000    5,367845893e-01   -4,650713801e-01
     5757000000    5,410530567e-01   -4,651016593e-01
     5758000000    5,199087858e-01   -4,778360724e-01
     5759000000    5,136544108e-01   -4,871721268e-01
     5760000000    5,074082017e-01   -4,827573895e-01
     5761000000    5,033401251e-01   -4,887403846e-01
     5762000000    5,051469803e-01   -4,944588244e-01
     5763000000    4,768125415e-01   -5,036715269e-01
     5764000000    4,764278233e-01   -5,044442415e-01
     5765000000    4,748549461e-01   -5,065388680e-01
     5766000000    4,596122503e-01   -5,128608346e-01
     5767000000    4,611706138e-01   -5,175164342e-01
     5768000000    4,404787719e-01   -5,266972184e-01
     5769000000    4,363352060e-01   -5,299225450e-01
     5770000000    4,322770536e-01   -5,243501067e-01
     5771000000    4,162228107e-01   -5,370538831e-01
     5772000000    4,114781916e-01   -5,383034945e-01
     5773000000    3,896871507e-01   -5,422748923e-01
     5774000000    3,808995485e-01   -5,471653342e-01
     5775000000    3,797372878e-01   -5,387995839e-01
     5776000000    3,661600053e-01   -5,470755100e-01
     5777000000    3,528019786e-01   -5,560641885e-01
     5778000000    3,350331485e-01   -5,538919568e-01
     5779000000    3,266389072e-01   -5,509780049e-01
     5780000000    3,275587857e-01   -5,452749133e-01
     5781000000    3,011610508e-01   -5,543961525e-01
     5782000000    3,000502884e-01   -5,584733486e-01
     5783000000    2,749163806e-01   -5,593328476e-01
     5784000000    2,654039860e-01   -5,538409948e-01
     5785000000    2,724884152e-01   -5,495197177e-01
     5786000000    2,451201826e-01   -5,580188632e-01
     5787000000    2,319300175e-01   -5,485667586e-01
     5788000000    2,211578637e-01   -5,536570549e-01
     5789000000    2,166441828e-01   -5,497056246e-01
     5790000000    2,160660923e-01   -5,399793983e-01
     5791000000    1,857271194e-01   -5,537990928e-01
     5792000000    1,753034294e-01   -5,414611697e-01
     5793000000    1,668936759e-01   -5,393774509e-01
     5794000000    1,573570222e-01   -5,489531159e-01
     5795000000    1,517149657e-01   -5,303187370e-01
     5796000000    1,290371418e-01   -5,268551707e-01
     5797000000    1,141859293e-01   -5,297895074e-01
     5798000000    1,167797074e-01   -5,265356302e-01
     5799000000    9,958369285e-02   -5,210383534e-01
     5800000000    9,994482994e-02   -5,088943243e-01
     5801000000    8,026827127e-02   -5,152558088e-01
     5802000000    6,772493571e-02   -4,992626309e-01
     5803000000    6,612078100e-02   -5,025646687e-01
     5804000000    5,070571601e-02   -4,879802465e-01
     5805000000    4,799003154e-02   -4,873493016e-01
     5806000000    2,964506857e-02   -4,862146080e-01
     5807000000    1,820634305e-02   -4,670920074e-01
     5808000000    1,615127549e-02   -4,565129578e-01
     5809000000    6,307458505e-03   -4,588260055e-01
     5810000000    5,563489161e-03   -4,510211945e-01
     5811000000   -1,030980237e-02   -4,498253167e-01
     5812000000   -1,887233183e-02   -4,345262647e-01
     5813000000   -1,133866888e-02   -4,321618974e-01
     5814000000   -2,871919796e-02   -4,232095480e-01
     5815000000   -3,494864702e-02   -4,012840390e-01
     5816000000   -3,726082668e-02   -4,170098305e-01
     5817000000   -4,580163956e-02   -3,990613520e-01
     5818000000   -4,133933410e-02   -3,903800547e-01
     5819000000   -5,249057710e-02   -3,976951241e-01
     5820000000   -5,161418021e-02   -3,858435452e-01
     5821000000   -6,494949013e-02   -3,770046532e-01
     5822000000   -6,427446008e-02   -3,813242912e-01
     5823000000   -6,159795076e-02   -3,648872375e-01
     5824000000   -7,658412308e-02   -3,637436032e-01
     5825000000   -8,456368744e-02   -3,508050740e-01
     5826000000   -8,214557916e-02   -3,584343195e-01
     5827000000   -9,027329087e-02   -3,428610861e-01
     5828000000   -8,634349704e-02   -3,322747946e-01
     5829000000   -1,000512019e-01   -3,327103555e-01
     5830000000   -1,076610684e-01   -3,255768120e-01
     5831000000   -1,028134301e-01   -3,319253027e-01
     5832000000   -1,137096733e-01   -3,086302876e-01
     5833000000   -1,150086671e-01   -3,017785847e-01
     5834000000   -1,139461324e-01   -3,189329207e-01
     5835000000   -1,228188276e-01   -3,041571975e-01
     5836000000   -1,290453672e-01   -2,917389274e-01
     5837000000   -1,318299025e-01   -2,813203335e-01
     5838000000   -1,347127110e-01   -2,773244977e-01
     5839000000   -1,415436566e-01   -2,726091146e-01
     5840000000   -1,434201151e-01   -2,665517330e-01
     5841000000   -1,494525820e-01   -2,483621091e-01
     5842000000   -1,507105827e-01   -2,513408065e-01
     5843000000   -1,527767628e-01   -2,421954125e-01
     5844000000   -1,502663642e-01   -2,482229173e-01
     5845000000   -1,514944881e-01   -2,354448140e-01
     5846000000   -1,580616087e-01   -2,204691172e-01
     5847000000   -1,583046764e-01   -2,168058902e-01
     5848000000   -1,686847955e-01   -1,977960020e-01
     5849000000   -1,578814387e-01   -2,209498733e-01
     5850000000   -1,715355664e-01   -1,811758280e-01
     5851000000   -1,684913337e-01   -1,794414371e-01
     5852000000   -1,630823761e-01   -1,924764067e-01
     5853000000   -1,718140990e-01   -1,721273810e-01
     5854000000   -1,599415839e-01   -1,701851636e-01
     5855000000   -1,728768796e-01   -1,506146044e-01
     5856000000   -1,597259641e-01   -1,601258516e-01
     5857000000   -1,648637503e-01   -1,452123523e-01
     5858000000   -1,684339494e-01   -1,381188035e-01
     5859000000   -1,689064205e-01   -1,248646006e-01
     5860000000   -1,604654342e-01   -1,275562793e-01
     5861000000   -1,599105150e-01   -1,308394372e-01
     5862000000   -1,599355936e-01   -1,165910214e-01
     5863000000   -1,623857915e-01   -1,030379757e-01
     5864000000   -1,614920348e-01   -9,978787601e-02
     5865000000   -1,468873620e-01   -1,060432419e-01
     5866000000   -1,603678316e-01   -8,833840489e-02
     5867000000   -1,525999904e-01   -8,046685159e-02
     5868000000   -1,541052610e-01   -7,365113497e-02
     5869000000   -1,425969154e-01   -7,740994543e-02
     5870000000   -1,474360079e-01   -6,302011758e-02
     5871000000   -1,500652581e-01   -5,541313067e-02
     5872000000   -1,365957707e-01   -5,904023722e-02
     5873000000   -1,246199086e-01   -5,291742086e-02
     5874000000   -1,286985278e-01   -4,890882224e-02
     5875000000   -1,307042837e-01   -3,825356066e-02
     5876000000   -1,184099838e-01   -4,340010509e-02
     5877000000   -1,136558577e-01   -3,906453773e-02
     5878000000   -1,207617223e-01   -2,142620832e-02
     5879000000   -1,112531126e-01   -2,788422257e-02
     5880000000   -1,111176759e-01   -1,667577773e-02
     5881000000   -1,103960201e-01   -2,106244862e-02
     5882000000   -9,736464173e-02   -1,303677075e-02
     5883000000   -9,614580870e-02   -8,475945331e-03
     5884000000   -9,271597117e-02   -6,483213045e-03
     5885000000   -7,891067863e-02   -6,200264208e-03
     5886000000   -8,263366669e-02   -2,447851002e-03
     5887000000   -6,394168735e-02   -4,579974338e-03
     5888000000   -7,330307364e-02    1,467833295e-03
     5889000000   -7,032517344e-02    1,495614648e-03
     5890000000   -6,065431237e-02    3,595595248e-03
     5891000000   -6,371431798e-02    6,249017082e-03
     5892000000   -5,510887876e-02    7,398624904e-03
     5893000000   -4,882854968e-02    9,453689680e-03
     5894000000   -5,283819884e-02    6,424121559e-03
     5895000000   -3,952949494e-02    9,617352858e-03
     5896000000   -4,211676866e-02    1,478542294e-02
     5897000000   -3,288358077e-02    1,185178664e-02
     5898000000   -3,228662908e-02    1,282221079e-02
     5899000000   -3,090039827e-02    1,391522028e-02
     5900000000   -1,858976670e-02    1,430552080e-02
     5901000000   -2,052737959e-02    1,589323021e-02
     5902000000   -1,598481089e-02    1,936647296e-02
     5903000000   -1,214984898e-02    1,888355613e-02
     5904000000   -1,257236581e-02    1,948859543e-02
     5905000000   -1,381948590e-03    2,213945054e-02
     5906000000    5,120933987e-03    2,487656474e-02
     5907000000    3,537740558e-03    2,467520721e-02
     5908000000    8,966496214e-03    2,627569623e-02
     5909000000    8,724932559e-03    2,736732177e-02
     5910000000    2,705414034e-02    3,124077804e-02
     5911000000    1,461512223e-02    2,615327574e-02
     5912000000    2,336247265e-02    3,038542531e-02
     5913000000    2,267498896e-02    2,749088965e-02
     5914000000    3,213987499e-02    3,389922157e-02
     5915000000    4,636158422e-02    3,748011962e-02
     5916000000    3,850372508e-02    3,080208786e-02
     5917000000    4,690283909e-02    3,775560483e-02
     5918000000    4,448049143e-02    3,052795865e-02
     5919000000    5,567497015e-02    3,532810509e-02
     5920000000    6,174002588e-02    3,906321153e-02
     5921000000    6,849887222e-02    4,119675979e-02
     5922000000    7,028876990e-02    4,163349420e-02
     5923000000    8,283399045e-02    4,626829922e-02
     5924000000    7,952728122e-02    3,692914918e-02
     5925000000    9,737209231e-02    4,984378442e-02
     5926000000    9,798248112e-02    4,795111343e-02
     5927000000    9,654255211e-02    3,625828028e-02
     5928000000    1,094214991e-01    4,787186161e-02
     5929000000    1,123054102e-01    3,649707139e-02
     5930000000    1,230616793e-01    4,458566010e-02
     5931000000    1,295377016e-01    4,279593751e-02
     5932000000    1,296631098e-01    4,136127606e-02
     5933000000    1,424502283e-01    5,196293443e-02
     5934000000    1,460302174e-01    3,841913491e-02
     5935000000    1,550533026e-01    4,447226226e-02
     5936000000    1,574464738e-01    3,839958832e-02
     5937000000    1,606611907e-01    3,598762676e-02
     5938000000    1,744198352e-01    3,787187487e-02
     5939000000    1,772058308e-01    2,067101002e-02
     5940000000    1,844780743e-01    4,580752552e-02
     5941000000    1,914593875e-01    2,744100615e-02
     5942000000    1,938740164e-01    3,000242636e-02
     5943000000    2,088105381e-01    3,419272974e-02
     5944000000    2,134862542e-01    2,498300932e-02
     5945000000    2,132032067e-01    2,966674417e-02
     5946000000    2,205844223e-01    2,234125510e-02
     5947000000    2,247780710e-01    1,805216633e-02
     5948000000    2,392562479e-01    1,683443971e-02
     5949000000    2,404779494e-01    1,981314830e-02
     5950000000    2,409131527e-01    2,379970253e-02
     5951000000    2,536974847e-01    7,569653913e-03
     5952000000    2,541277707e-01    1,093023084e-02
     5953000000    2,673753798e-01    1,317242067e-02
     5954000000    2,699063718e-01   -2,132292837e-03
     5955000000    2,713317573e-01    1,827526838e-03
     5956000000    2,842298746e-01   -8,792423643e-03
     5957000000    2,877740264e-01   -1,043812744e-02
     5958000000    2,898778021e-01    4,273992032e-03
     5959000000    2,982567549e-01   -2,111390978e-02
     5960000000    2,987290621e-01   -1,668535732e-02
     5961000000    3,071758747e-01   -2,206095122e-02
     5962000000    3,100826442e-01   -2,105498128e-02
     5963000000    3,150342405e-01   -1,499370113e-02
     5964000000    3,224458098e-01   -3,353467211e-02
     5965000000    3,258227110e-01   -4,437126592e-02
     5966000000    3,342747390e-01   -3,950010985e-02
     5967000000    3,374932706e-01   -4,480224848e-02
     5968000000    3,432410955e-01   -5,263528973e-02
     5969000000    3,508933485e-01   -6,096369028e-02
     5970000000    3,457231820e-01   -5,211499333e-02
     5971000000    3,528214693e-01   -6,476707011e-02
     5972000000    3,617205024e-01   -6,905031204e-02
     5973000000    3,567807972e-01   -7,134725899e-02
     5974000000    3,676037192e-01   -8,082266897e-02
     5975000000    3,703410327e-01   -8,716510236e-02
     5976000000    3,605942428e-01   -6,452534348e-02
     5977000000    3,789787889e-01   -9,835676849e-02
     5978000000    3,764536083e-01   -8,878429979e-02
     5979000000    3,813094795e-01   -1,056342795e-01
     5980000000    3,917053044e-01   -1,189817190e-01
     5981000000    3,775927424e-01   -9,598582238e-02
     5982000000    3,983483613e-01   -1,320884675e-01
     5983000000    3,912700415e-01   -1,163286641e-01
     5984000000    3,928614259e-01   -1,199478880e-01
     5985000000    3,997540474e-01   -1,280297339e-01
     5986000000    3,936631680e-01   -1,280160844e-01
     5987000000    4,020612836e-01   -1,382019371e-01
     5988000000    4,041041434e-01   -1,283168197e-01
     5989000000    4,192383587e-01   -1,485753059e-01
     5990000000    4,173093736e-01   -1,616903543e-01
     5991000000    4,111984372e-01   -1,513219774e-01
     5992000000    4,139220417e-01   -1,586949229e-01
     5993000000    4,037990272e-01   -1,434499174e-01
     5994000000    4,286359549e-01   -1,819868833e-01
     5995000000    4,240190387e-01   -1,782328784e-01
     5996000000    4,148786366e-01   -1,684833467e-01
     5997000000    4,399408698e-01   -2,037411928e-01
     5998000000    4,207800925e-01   -1,728877574e-01
     5999000000    4,376995265e-01   -2,060017735e-01
     6000000000    4,321550429e-01   -2,111891955e-01
     6001000000    4,228688180e-01   -2,001153678e-01
     6002000000    4,351160228e-01   -2,191081941e-01
     6003000000    4,415723681e-01   -2,188634276e-01
     6004000000    4,404360354e-01   -2,289687246e-01
     6005000000    4,490705132e-01   -2,430274934e-01
     6006000000    4,416264892e-01   -2,349353284e-01
     6007000000    4,418817163e-01   -2,482593358e-01
     6008000000    4,492100477e-01   -2,489753515e-01
     6009000000    4,442143738e-01   -2,653122842e-01
     6010000000    4,485045671e-01   -2,797941864e-01
     6011000000    4,416336417e-01   -2,696230710e-01
     6012000000    4,440605342e-01   -2,838442326e-01
     6013000000    4,497933686e-01   -2,871361673e-01
     6014000000    4,442948401e-01   -2,991433144e-01
     6015000000    4,458607733e-01   -3,123832047e-01
     6016000000    4,385569394e-01   -3,081035614e-01
     6017000000    4,459773004e-01   -3,287404180e-01
     6018000000    4,519202411e-01   -3,320432305e-01
     6019000000    4,288501740e-01   -3,386604190e-01
     6020000000    4,351302385e-01   -3,504665494e-01
     6021000000    4,404773116e-01   -3,609969914e-01
     6022000000    4,259499907e-01   -3,669802547e-01
     6023000000    4,363407195e-01   -3,736523390e-01
     6024000000    4,022915065e-01   -3,836497366e-01
     6025000000    4,147043824e-01   -3,969816267e-01
     6026000000    4,160729349e-01   -3,889531195e-01
     6027000000    4,055433273e-01   -4,050470293e-01
     6028000000    4,050164521e-01   -4,132499993e-01
     6029000000    3,934289813e-01   -4,243648052e-01
     6030000000    3,917238414e-01   -4,354634881e-01
     6031000000    3,905729651e-01   -4,307231009e-01
     6032000000    3,810484111e-01   -4,468178451e-01
     6033000000    3,803417683e-01   -4,530191422e-01
     6034000000    3,573203385e-01   -4,597017467e-01
     6035000000    3,578568995e-01   -4,693907797e-01
     6036000000    3,525955081e-01   -4,695103765e-01
     6037000000    3,463347852e-01   -4,807886183e-01
     6038000000    3,339613974e-01   -4,883963168e-01
     6039000000    3,194779158e-01   -4,991373122e-01
     6040000000    3,134782314e-01   -5,035302043e-01
     6041000000    3,205538392e-01   -4,999705255e-01
     6042000000    2,920393050e-01   -5,137839317e-01
     6043000000    2,862388194e-01   -5,190326571e-01
     6044000000    2,681390345e-01   -5,195317864e-01
     6045000000    2,542790771e-01   -5,319516063e-01
     6046000000    2,676953375e-01   -5,227545500e-01
     6047000000    2,389676273e-01   -5,372582078e-01
     6048000000    2,302258909e-01   -5,411716700e-01
     6049000000    2,143918574e-01   -5,446445942e-01
     6050000000    2,059169412e-01   -5,444359779e-01
     6051000000    2,100026757e-01   -5,373712182e-01
     6052000000    1,791404635e-01   -5,533336997e-01
     6053000000    1,790957302e-01   -5,475969315e-01
     6054000000    1,572471261e-01   -5,528961420e-01
     6055000000    1,453407109e-01   -5,553358793e-01
     6056000000    1,485238373e-01   -5,461478829e-01
     6057000000    1,156062111e-01   -5,572532415e-01
     6058000000    1,051530391e-01   -5,556037426e-01
     6059000000    1,003573462e-01   -5,555321574e-01
     6060000000    8,306421340e-02   -5,512120724e-01
     6061000000    8,398459107e-02   -5,519793034e-01
     6062000000    5,477103218e-02   -5,586810112e-01
     6063000000    3,874166310e-02   -5,597760677e-01
     6064000000    4,228426889e-02   -5,493167043e-01
     6065000000    2,318411134e-02   -5,486970544e-01
     6066000000    2,375195548e-02   -5,440225005e-01
     6067000000   -4,690235481e-03   -5,543443561e-01
     6068000000   -1,752238162e-02   -5,416663885e-01
     6069000000   -1,790901087e-02   -5,445058942e-01
     6070000000   -4,003593698e-02   -5,450377464e-01
     6071000000   -4,075751454e-02   -5,339972377e-01
     6072000000   -6,830682606e-02   -5,374301076e-01
     6073000000   -7,651155442e-02   -5,329012275e-01
     6074000000   -7,881885022e-02   -5,313228369e-01
     6075000000   -9,882527590e-02   -5,305757523e-01
     6076000000   -1,040034145e-01   -5,255090594e-01
     6077000000   -1,241368726e-01   -5,290621519e-01
     6078000000   -1,369965822e-01   -5,166220069e-01
     6079000000   -1,329033673e-01   -5,034677386e-01
     6080000000   -1,615243703e-01   -5,104604363e-01
     6081000000   -1,642494500e-01   -4,835234284e-01
     6082000000   -1,804922670e-01   -4,984811544e-01
     6083000000   -1,953198463e-01   -4,808816612e-01
     6084000000   -1,910798252e-01   -4,873130918e-01
     6085000000   -2,128188461e-01   -4,827430248e-01
     6086000000   -2,275858670e-01   -4,624923766e-01
     6087000000   -2,348321378e-01   -4,690207839e-01
     6088000000   -2,523324490e-01   -4,497527182e-01
     6089000000   -2,454682887e-01   -4,505998492e-01
     6090000000   -2,702717483e-01   -4,458909035e-01
     6091000000   -2,839477658e-01   -4,284790754e-01
     6092000000   -2,873108685e-01   -4,304136634e-01
     6093000000   -2,983092070e-01   -4,073849022e-01
     6094000000   -2,941231430e-01   -4,113433063e-01
     6095000000   -3,141386509e-01   -4,090493321e-01
     6096000000   -3,266461790e-01   -3,851647079e-01
     6097000000   -3,299306035e-01   -3,975715041e-01
     6098000000   -3,437230289e-01   -3,710743785e-01
     6099000000   -3,424335718e-01   -3,579729199e-01
     6100000000   -3,568438888e-01   -3,662915230e-01
     6101000000   -3,706297278e-01   -3,382280469e-01
     6102000000   -3,663379550e-01   -3,352413177e-01
     6103000000   -3,781348467e-01   -3,266503811e-01
     6104000000   -3,800464869e-01   -3,184404969e-01
     6105000000   -3,943170905e-01   -3,170516789e-01
     6106000000   -4,040654600e-01   -2,711282969e-01
     6107000000   -3,965762854e-01   -3,144757450e-01
     6108000000   -4,126697481e-01   -2,593007982e-01
     6109000000   -4,107649922e-01   -2,783841193e-01
     6110000000   -4,234009385e-01   -2,521214485e-01
     6111000000   -4,281944633e-01   -2,399653345e-01
     6112000000   -4,226860106e-01   -2,464325875e-01
     6113000000   -4,315929115e-01   -2,312465161e-01
     6114000000   -4,378771484e-01   -2,101972252e-01
     6115000000   -4,431312382e-01   -2,228000611e-01
     6116000000   -4,438988268e-01   -1,958027035e-01
     6117000000   -4,484519064e-01   -1,972671151e-01
     6118000000   -4,525933862e-01   -1,900144219e-01
     6119000000   -4,548266232e-01   -1,538187563e-01
     6120000000   -4,576505423e-01   -1,805370599e-01
     6121000000   -4,606883526e-01   -1,188307777e-01
     6122000000   -4,732927978e-01   -1,296490878e-01
     6123000000   -4,611843228e-01   -1,529742330e-01
     6124000000   -4,690433145e-01   -1,020734087e-01
     6125000000   -4,694935083e-01   -1,305884719e-01
     6126000000   -4,715891480e-01   -9,694585204e-02
     6127000000   -4,711614549e-01   -9,187406301e-02
     6128000000   -4,705050588e-01   -9,455250949e-02
     6129000000   -4,693584442e-01   -5,923815444e-02
     6130000000   -4,694297016e-01   -7,491105795e-02
     6131000000   -4,710474312e-01   -6,028578430e-02
     6132000000   -4,779773951e-01   -5,211574584e-02
     6133000000   -4,608767927e-01   -5,524243414e-02
     6134000000   -4,695183039e-01   -3,964262083e-02
     6135000000   -4,749433100e-01   -1,439842582e-02
     6136000000   -4,628494084e-01   -3,588512912e-02
     6137000000   -4,738441110e-01   -7,708417252e-04
     6138000000   -4,659861028e-01   -1,150734350e-02
     6139000000   -4,636556804e-01   -3,088823520e-03
     6140000000   -4,740945697e-01    1,222983282e-02
     6141000000   -4,686602950e-01    3,277475014e-02
     6142000000   -4,668308496e-01    9,638056159e-03
     6143000000   -4,629644454e-01    3,700935096e-02
     6144000000   -4,587273002e-01    4,518300295e-02
     6145000000   -4,664828181e-01    4,673955590e-02
     6146000000   -4,636602700e-01    6,150846183e-02
     6147000000   -4,627894759e-01    5,719879270e-02
     6148000000   -4,579793513e-01    7,056120038e-02
     6149000000   -4,556161463e-01    9,328946471e-02
     6150000000   -4,579449892e-01    6,370367855e-02
     6151000000   -4,536051452e-01    8,885618299e-02
     6152000000   -4,524765015e-01    9,523805976e-02
     6153000000   -4,437964857e-01    9,013526887e-02
     6154000000   -4,469138682e-01    1,143053025e-01
     6155000000   -4,542780519e-01    1,050102785e-01
     6156000000   -4,439320862e-01    1,316486448e-01
     6157000000   -4,419944882e-01    1,294089854e-01
     6158000000   -4,342884719e-01    1,193488985e-01
     6159000000   -4,332593977e-01    1,450410485e-01
     6160000000   -4,462759495e-01    1,244844645e-01
     6161000000   -4,294953346e-01    1,435959637e-01
     6162000000   -4,281681180e-01    1,575814337e-01
     6163000000   -4,220483899e-01    1,561815888e-01
     6164000000   -4,172938168e-01    1,622086912e-01
     6165000000   -4,300888181e-01    1,653637886e-01
     6166000000   -4,128083289e-01    1,676230282e-01
     6167000000   -4,118272960e-01    1,841114759e-01
     6168000000   -4,045225680e-01    1,809479743e-01
     6169000000   -4,077014327e-01    1,828045398e-01
     6170000000   -4,200466871e-01    1,892363131e-01
     6171000000   -3,986300528e-01    1,955876946e-01
     6172000000   -3,928629458e-01    2,039470524e-01
     6173000000   -3,921548724e-01    2,000237256e-01
     6174000000   -3,897600472e-01    2,131108791e-01
     6175000000   -3,971493542e-01    2,099085897e-01
     6176000000   -3,803713024e-01    2,114769369e-01
     6177000000   -3,774060309e-01    2,261982113e-01
     6178000000   -3,762786984e-01    2,132164091e-01
     6179000000   -3,720652461e-01    2,305595577e-01
     6180000000   -3,737694919e-01    2,295831591e-01
     6181000000   -3,510363102e-01    2,307456136e-01
     6182000000   -3,617829978e-01    2,471032143e-01
     6183000000   -3,594432175e-01    2,318167984e-01
     6184000000   -3,546746075e-01    2,439213395e-01
     6185000000   -3,610852659e-01    2,497121990e-01
     6186000000   -3,407724798e-01    2,524574101e-01
     6187000000   -3,412760794e-01    2,614974976e-01
     6188000000   -3,467127681e-01    2,401042134e-01
     6189000000   -3,358693421e-01    2,626976371e-01
     6190000000   -3,359652162e-01    2,596563101e-01
     6191000000   -3,250642121e-01    2,719905376e-01
     6192000000   -3,237377107e-01    2,793100476e-01
     6193000000   -3,259166181e-01    2,625954747e-01
     6194000000   -3,152417541e-01    2,783161700e-01
     6195000000   -3,117476106e-01    2,793944478e-01
     6196000000   -3,020173013e-01    2,794850469e-01
     6197000000   -3,039873242e-01    2,878929079e-01
     6198000000   -3,045624793e-01    2,751534581e-01
     6199000000   -2,905771136e-01    2,908126116e-01
     6200000000   -2,935252786e-01    2,896028161e-01
     6201000000   -2,843532264e-01    2,904596627e-01
     6202000000   -2,774623632e-01    2,987331152e-01
     6203000000   -2,802713811e-01    2,889753580e-01
     6204000000   -2,646858990e-01    3,021589816e-01
     6205000000   -2,633005679e-01    3,073338866e-01
     6206000000   -2,565813959e-01    2,972034812e-01
     6207000000   -2,550123334e-01    3,058802187e-01
     6208000000   -2,568515837e-01    3,006898761e-01
     6209000000   -2,417983711e-01    3,154726624e-01
     6210000000   -2,417255044e-01    3,129728138e-01
     6211000000   -2,372147292e-01    3,086134791e-01
     6212000000   -2,319385111e-01    3,103731275e-01
     6213000000   -2,316192389e-01    3,076668978e-01
     6214000000   -2,196723670e-01    3,219757974e-01
     6215000000   -2,140004635e-01    3,220360577e-01
     6216000000   -2,141421586e-01    3,154670894e-01
     6217000000   -2,083288282e-01    3,223530650e-01
     6218000000   -2,017485499e-01    3,168474138e-01
     6219000000   -1,932273209e-01    3,280875087e-01
     6220000000   -1,912679225e-01    3,271887004e-01
     6221000000   -1,906074733e-01    3,198567927e-01
     6222000000   -1,828164458e-01    3,279808164e-01
     6223000000   -1,778539568e-01    3,302424550e-01
     6224000000   -1,687907130e-01    3,360580802e-01
     6225000000   -1,629220098e-01    3,321973383e-01
     6226000000   -1,613557935e-01    3,279532194e-01
     6227000000   -1,535616368e-01    3,359850943e-01
     6228000000   -1,515918672e-01    3,367410302e-01
     6229000000   -1,427483857e-01    3,464327753e-01
     6230000000   -1,358192712e-01    3,423640132e-01
     6231000000   -1,349373460e-01    3,303076923e-01
     6232000000   -1,289319694e-01    3,416988552e-01
     6233000000   -1,230086759e-01    3,442977369e-01
     6234000000   -1,184401289e-01    3,489479721e-01
     6235000000   -1,123810783e-01    3,420956135e-01
     6236000000   -1,101833358e-01    3,350346684e-01
     6237000000   -1,033642367e-01    3,518864810e-01
     6238000000   -9,526877850e-02    3,483738601e-01
     6239000000   -9,181766212e-02    3,456934094e-01
     6240000000   -8,301926404e-02    3,499717116e-01
     6241000000   -7,941639423e-02    3,433999121e-01
     6242000000   -7,520999014e-02    3,530044556e-01
     6243000000   -6,807942688e-02    3,557422161e-01
     6244000000   -6,733469665e-02    3,519137800e-01
     6245000000   -5,996971577e-02    3,505833149e-01
     6246000000   -5,415989831e-02    3,532042503e-01
     6247000000   -4,972277209e-02    3,586229682e-01
     6248000000   -4,036594182e-02    3,568707407e-01
     6249000000   -4,169945419e-02    3,563365042e-01
     6250000000   -3,022932075e-02    3,520126045e-01
     6251000000   -2,112037502e-02    3,493392169e-01
     6252000000   -2,128589153e-02    3,623943031e-01
     6253000000   -1,534982678e-02    3,597460687e-01
     6254000000   -7,191204466e-03    3,476979434e-01
     6255000000   -4,657636397e-03    3,582604825e-01
     6256000000    5,567029119e-03    3,557731807e-01
     6257000000    5,419711582e-03    3,663595021e-01
     6258000000    8,558353409e-03    3,656443059e-01
     6259000000    1,329541579e-02    3,545852602e-01
     6260000000    2,281394228e-02    3,562038839e-01
     6261000000    3,650948405e-02    3,510898352e-01
     6262000000    2,761946060e-02    3,658027649e-01
     6263000000    4,044155404e-02    3,626575470e-01
     6264000000    4,820924252e-02    3,542233706e-01
     6265000000    5,121305212e-02    3,595220447e-01
     6266000000    6,255705655e-02    3,547564149e-01
     6267000000    4,794805124e-02    3,646432757e-01
     6268000000    7,235746086e-02    3,555106521e-01
     6269000000    7,457686961e-02    3,547301292e-01
     6270000000    7,696215063e-02    3,593892157e-01
     6271000000    8,964134753e-02    3,591211736e-01
     6272000000    8,074994385e-02    3,564998209e-01
     6273000000    8,340707421e-02    3,620339930e-01
     6274000000    1,048188880e-01    3,482653797e-01
     6275000000    1,151404157e-01    3,509983718e-01
     6276000000    1,157141626e-01    3,581766486e-01
     6277000000    1,054252088e-01    3,519283235e-01
     6278000000    1,089427546e-01    3,592312038e-01
     6279000000    1,223178357e-01    3,538517058e-01
     6280000000    1,102678850e-01    3,574759662e-01
     6281000000    1,389226913e-01    3,556608856e-01
     6282000000    1,266943514e-01    3,565992117e-01
     6283000000    1,335254163e-01    3,522303998e-01
     6284000000    1,639812142e-01    3,483153284e-01
     6285000000    1,400237232e-01    3,587356806e-01
     6286000000    1,550574303e-01    3,560321033e-01
     6287000000    1,482261717e-01    3,512445688e-01
     6288000000    1,576838344e-01    3,525477350e-01
     6289000000    1,846029758e-01    3,533545732e-01
     6290000000    1,611441076e-01    3,543873429e-01
     6291000000    1,605390012e-01    3,559274673e-01
     6292000000    1,790581197e-01    3,525737524e-01
     6293000000    1,984683722e-01    3,471908867e-01
     6294000000    1,982672364e-01    3,519046307e-01
     6295000000    1,766098291e-01    3,519653082e-01
     6296000000    2,057583928e-01    3,504826128e-01
     6297000000    1,886366904e-01    3,540781140e-01
     6298000000    2,001822591e-01    3,520440459e-01
     6299000000    2,159963548e-01    3,526798487e-01
     6300000000    1,959192008e-01    3,560517728e-01
