! Historical bare coupler, fitted EM network; reference planes at comb connections.
! No capacitors included. Port order 1 input, 2 through, 3 coupled, 4 isolated.
# Hz S RI R 50
4500000000 -0.1117502146516287 -0.01553053326377516 -0.03993298286229108 -0.9336037989062188 0.2534438513725651 -0.01946253233687048 -0.07237490482170608 -0.02230133066203102
  -0.03993296940635808 -0.9336036149266658 -0.111606441955092 -0.01279103676170625 -0.07298104828607097 -0.02243209334307175 0.2533506121491177 -0.02063551627884611
  0.2534184181829438 -0.0194609435847145 -0.07297393678608849 -0.02242967649057962 -0.1142636327475231 0.004420888002608659 -0.1746741199428199 -0.9160060816201435
  -0.07238022508508261 -0.02230301168114216 0.2533689331345754 -0.02063650567817439 -0.1747010653752517 -0.9161644179336617 -0.1148860691145051 0.002974889361723456
4505000000 -0.1118229582602708 -0.01536655605343147 -0.04154623263907094 -0.9334756929923991 0.2535007102062929 -0.01990730749062244 -0.07254193563389251 -0.02217645269016022
  -0.04154621884885158 -0.9334755088651318 -0.1116752192908201 -0.01262179725284695 -0.07314923027085646 -0.02230542179226197 0.2534053313852782 -0.02108239217305443
  0.2534752704991383 -0.01990567458123935 -0.07314210198074321 -0.02230301700650196 -0.1142779411328519 0.004612165251062381 -0.1763959833319648 -0.9156193092776718
  -0.07254726836076196 -0.02217812468850893 0.2534236570579432 -0.02108341409136819 -0.17642322634192 -0.9157775849763624 -0.1149034312875875 0.003165955431893324
4510000000 -0.111895319011863 -0.01520240337673456 -0.04315908091820012 -0.9333449040237434 0.2535563437320846 -0.02035225080268678 -0.07270879574337082 -0.02205093217791956
  -0.04315906679315486 -0.9333447197493279 -0.1117435959868917 -0.01245238445816023 -0.07331723645146886 -0.02217810275180265 0.253458818037175 -0.02152943383009294
  0.2535308976290233 -0.02035057371753532 -0.07331009138739579 -0.02217571009671568 -0.1142917102845084 0.00480344142885436 -0.1781169580392391 -0.9152294249086511
  -0.07271414092224142 -0.02205259510797067 0.2534771483075262 -0.02153048828164539 -0.1781444984880222 -0.915387639453074 -0.1149202562214922 0.0033570307908221
4515000000 -0.1119672967148731 -0.0150380760594966 -0.04477152376327166 -0.9332114333368354 0.2536107516294195 -0.02079735881424628 -0.07287548294625118 -0.02192476919034931
  -0.0447715093028595 -0.9332112489158405 -0.1118115718326005 -0.01228279926219882 -0.07348506459860805 -0.02205013629743795 0.2535110717868281 -0.02197663777066759
  0.2535852992521151 -0.02079563753513101 -0.07347790277696715 -0.02204775583696057 -0.1143049404781729 0.004994715042565251 -0.1798370390980426 -0.9148364307139978
  -0.07288084056546972 -0.02192642300456816 0.2535294065653144 -0.0219777247694632 -0.1798648768460708 -0.9149945835650628 -0.1149365441533053 0.003548113972620736
4520000000 -0.1120388911786553 -0.01487357492647579 -0.04638355724238014 -0.9330752822716459 0.2536639335862148 -0.02124262806620867 -0.07304199503802859 -0.0217979637999071
  -0.04638354244606292 -0.9330750977046408 -0.1118791466183175 -0.01211304254862396 -0.07365271248235228 -0.02192152251244768 0.2535620923247526 -0.02242400051523183
  0.2536384750563673 -0.02124086257527924 -0.07364553391975481 -0.02191915431051186 -0.1143176319928196 0.005185984601029679 -0.1815562215476071 -0.9144403288994061
  -0.07304736508577986 -0.02179960845075928 0.253580431521795 -0.02242512007502679 -0.1815843564544097 -0.9145984195183734 -0.1149522953232132 0.003739203513539354
4525000000 -0.112110102213439 -0.01470890080138263 -0.04799517742811609 -0.9329364521715151 0.2537158892988261 -0.02168805509921757 -0.07320832981360652 -0.02167051608646833
  -0.04799516229535571 -0.9329362674590717 -0.11194632013548 -0.01194311520021114 -0.07382017787218033 -0.02179226148765039 0.2536118793499603 -0.02287151858399619
  0.253690424738171 -0.02168624537896836 -0.07381298258545727 -0.02178990560818248 -0.1143297851107031 0.005377248615337366 -0.183274500432987 -0.9140411216753317
  -0.07321371227791332 -0.0216721515264209 0.2536302228759506 -0.02287267071829784 -0.1833029323572043 -0.9141991495238156 -0.1149675099744882 0.003930297951967831
4530000000 -0.1121809296303159 -0.01454405450688589 -0.04960638039755672 -0.9327949443831405 0.2537666184720504 -0.02213363645366251 -0.07337448506732051 -0.02154242613732956
  -0.04960636492781528 -0.9327947595258315 -0.112013092176581 -0.01177301809885573 -0.07398745853699562 -0.02166235332140473 0.253660432569961 -0.02331918849694046
  0.2537411480023571 -0.02213178248693302 -0.07398024654319869 -0.02166000982832501 -0.1143414001173441 0.005568505598834082 -0.1849918708050405 -0.9136388112569789
  -0.07337987993604342 -0.02154405231885108 0.2536787803352641 -0.02332037321900769 -0.1850205996044298 -0.913796775796945 -0.1149821883534756 0.004121395828434948
4535000000 -0.1122513732412289 -0.01437903686461907 -0.05121716223225573 -0.9326507602565622 0.2538161208191277 -0.0225793686696897 -0.07354045859296202 -0.02141369404720907
  -0.05121714642499668 -0.9326505752549621 -0.1120794625351576 -0.01160275212557883 -0.07415455224515163 -0.02153179811961258 0.2537077517007647 -0.023767006773823
  0.2537906445621992 -0.02257747043966444 -0.07414732356155358 -0.021529467076834 -0.1143524773015158 0.005759754067122799 -0.1867083277204281 -0.9132333998642823
  -0.07354586585379957 -0.02141531092277037 0.2537261036157185 -0.02376822409666632 -0.1867373532518589 -0.9133913005580528 -0.1149963307095801 0.004312495685609249
4540000000 -0.1123214328589593 -0.01421384869518671 -0.05282751901823659 -0.9325039011451477 0.2538643960617429 -0.02302524828721294 -0.0737062481838018 -0.02128431991824932
  -0.05282750287292412 -0.9325037159998334 -0.1121454310057806 -0.01143231816053301 -0.07432145676447652 -0.02140059599572029 0.2537538364668842 -0.02421496993419315
  0.2538389141394154 -0.02302330577742114 -0.07431421140856896 -0.02139827746714842 -0.1143630169552309 0.005950992538064857 -0.1884238662415904 -0.9128248897218951
  -0.0737116678242911 -0.02128592744032417 0.2537721924417997 -0.02421621987057379 -0.1884531883610512 -0.9129827260321447 -0.1150099372952516 0.004503596068297942
4545000000 -0.1123911082971162 -0.01404849081817096 -0.0544374468459804 -0.9323543684055826 0.2539114439300286 -0.02347127184592398 -0.07387185163261459 -0.02115430386001836
  -0.05443743036208088 -0.9323541831171306 -0.1122109973840445 -0.01126171708300849 -0.07448816986229585 -0.02126874707072135 0.2537986866013352 -0.02466307449740105
  0.2538859564641702 -0.0234692850402407 -0.07448090785179204 -0.02126644112025287 -0.1143730193737267 0.006142219531780423 -0.190138481436745 -0.9124132830591701
  -0.07387728364013013 -0.02115590198108355 0.2538170465464986 -0.02466435705983186 -0.1901680999993376 -0.9125710544489321 -0.1150230083659736 0.004694695523447169
4550000000 -0.1124603993701235 -0.01388296405213809 -0.05604694181041966 -0.9322021633978498 0.2539572641625672 -0.02391743588530389 -0.0740372667317019 -0.02102364598951176
  -0.05604692498740013 -0.9322019779668392 -0.1122761614665553 -0.01109094977143901 -0.07465468930545821 -0.02113625147315793 0.2538423018456408 -0.02511131698260982
  0.2539317712750768 -0.0239154047679489 -0.0746474106582916 -0.02113395816468032 -0.1143824848554531 0.006333433570649576 -0.1918521683798682 -0.9119985821101487
  -0.074042711093456 -0.02102523466204818 0.2538606656713122 -0.02511263218335472 -0.1918820832398144 -0.9121562880428116 -0.1150355441802481 0.004885792600141468
4555000000 -0.1125293058932091 -0.01371726921464504 -0.05765600001092965 -0.9320472874852205 0.2540018565063931 -0.0243637369446336 -0.074202491272916 -0.02089234643115367
  -0.05765598284825609 -0.9320471019122337 -0.1123409230509214 -0.01092001710340788 -0.07482101286035912 -0.02100310933912308 0.2538846819498317 -0.02555969390880413
  0.2539763583191999 -0.02436166150017204 -0.07481371759468362 -0.02100082873651376 -0.1143914137020578 0.006524633179313018 -0.193564922150686 -0.9115807891135423
  -0.07420794797595864 -0.02089392560764663 0.2539030495662467 -0.02556104175987893 -0.1935951331613261 -0.9117384290528547 -0.1150475449995837 0.00507688584960338
4560000000 -0.1125978276823929 -0.01355140712224632 -0.05926461755131614 -0.9318897420342402 0.254045220716995 -0.02481017156300417 -0.07436752304768407 -0.020760405316799
  -0.05926460004845722 -0.9318895563198581 -0.112405281935742 -0.01074891995565436 -0.07498713829296573 -0.02086932081226234 0.2539258266724484 -0.02600820179480481
  0.2540197173520578 -0.02480805177634663 -0.07497982642715557 -0.02086705297938826 -0.1143998062183729 0.006715816884672788 -0.1952767378346627 -0.9111599063127193
  -0.07437299207890355 -0.02076197494973846 0.253944197989819 -0.02600958230797557 -0.1953072448484572 -0.9113174797227882 -0.1150590110884815 0.005267973825193052
4565000000 -0.1126659645544757 -0.01338537859050067 -0.06087279053981058 -0.9317295284147127 0.254087356558319 -0.0252567362793295 -0.0745323598470314 -0.02062782278573413
  -0.06087277269623406 -0.9317293425595209 -0.1124692379205974 -0.01057765920407975 -0.07515306336883967 -0.02073488604377602 0.2539657357805449 -0.02645683715927724
  0.2540618481376247 -0.0252545721357313 -0.07514573492148956 -0.02073263104449211 -0.1144076627124029 0.006906983215892568 -0.1969876105229861 -0.9107359359556921
  -0.07453784119315258 -0.02062938282761592 0.2539841107090595 -0.02645825034606153 -0.1970184133915174 -0.9108934423009848 -0.1150699427144224 0.005459055082407319
4570000000 -0.1127337163270268 -0.01321918443397817 -0.06248051508905601 -0.9315666479996908 0.2541282638027704 -0.02570342763235572 -0.07469699946160506 -0.020494598984679
  -0.06248049690423182 -0.9315664620042734 -0.1125327908060379 -0.0104062357237539 -0.075318785853163 -0.02059980519242019 0.25400440904969 -0.02690559652074331
  0.2541027504483338 -0.0257012191174174 -0.07531144084308977 -0.0205975630905694 -0.1144149834953102 0.007098130704398697 -0.1986975353125607 -0.9103088802950987
  -0.07470249310919133 -0.0204961493880048 0.2540227874995135 -0.02690704239240974 -0.1987286338865303 -0.9104663190404443 -0.1150803401478544 0.005650128178879636
4575000000 -0.1128010828183738 -0.01305282546626702 -0.06408778731610207 -0.9314011021654572 0.2541679422312169 -0.0261502421606722 -0.07486143968169809 -0.02036073406778798
  -0.06408776878950187 -0.9314009160304025 -0.1125959403935738 -0.01023465038892139 -0.07548430351076264 -0.02046407842450887 0.2540418462639683 -0.02735447639759295
  0.2541424240650795 -0.02614798926034043 -0.07547694195700183 -0.02046184928392107 -0.114421768881401 0.007289257883880059 -0.2004065073059885 -0.9098787415881914
  -0.07486694561715011 -0.0203622747850662 0.2540602281452443 -0.02735595496516087 -0.2004379014352238 -0.9100361121987804 -0.1150902036621786 0.00584119167437873
4580000000 -0.1128680638475898 -0.01288630249998072 -0.06569460334239405 -0.9312328922915145 0.2542063916329902 -0.0265971764027241 -0.07502567829727293 -0.02022622819665134
  -0.06569458447348982 -0.9312327060174099 -0.1126586864856652 -0.01006290407300837 -0.07564961410613258 -0.02032770591391567 0.254078047215986 -0.02780347330809524
  0.2541808687772198 -0.02659487910329002 -0.0756422360279418 -0.020325489798407 -0.1144280191881141 0.007480363290288811 -0.2021145216115635 -0.9094455220968213
  -0.0750311965068286 -0.02022775918039737 0.2540964324388357 -0.02780498458233573 -0.2021462111450144 -0.9096028240382081 -0.1150995335337377 0.00603224413080839
4585000000 -0.1129346592344837 -0.01271961634676514 -0.06730095929376574 -0.9310620197605717 0.2542436118058911 -0.02704422689682251 -0.07518971309798508 -0.02009108154029669
  -0.06730094008202912 -0.9310618333480091 -0.1127210288857116 -0.009890997648628727 -0.07581471540346049 -0.02019068784207522 0.25411301170687 -0.02825258377040947
  0.2542180843825801 -0.02704188518492331 -0.07580732082031785 -0.02018848481544688 -0.1144337347360065 0.007671445461840706 -0.2038215733432554 -0.9090092240874235
  -0.07519524356772037 -0.02009260274303348 0.2541314001813938 -0.0282541277618442 -0.2038535581289962 -0.9091664568255274 -0.1151083300418016 0.006223284112205931
4590000000 -0.1130008687995877 -0.01255276781730589 -0.06890685130042612 -0.9308884859585324 0.2542796025561893 -0.02749139018115599 -0.07535354187320684 -0.01995529427518939
  -0.06890683174533065 -0.9308882994081018 -0.1127829673980419 -0.009718931987591191 -0.07597960516665053 -0.02005302439798438 0.2541467395462723 -0.02870180430259737
  0.2542540706874549 -0.02748900404377379 -0.07597219409825541 -0.02005083452402285 -0.1144389158487398 0.007862502939014986 -0.2055276576207004 -0.908569849831004
  -0.07535908458903465 -0.01995680564944854 0.2541651311825501 -0.02870338102149865 -0.2055599375059318 -0.9087270128321091 -0.1151165934685559 0.006414310184742141
4595000000 -0.1130666923641466 -0.01238575772133554 -0.07051227549695308 -0.9307122922744749 0.2543143636986283 -0.02793866279380096 -0.07551716241205128 -0.01981886658523485
  -0.07051225559797393 -0.9307121055867713 -0.112844501827904 -0.00954670796090566 -0.07614428115934918 -0.01991471577820418 0.2541792305523721 -0.02915113142263345
  0.2542888275066106 -0.0279362322182634 -0.07613685362562113 -0.01991253912067943 -0.1144435628530683 0.008053534264555006 -0.207232769569186 -0.9081274016031257
  -0.07552271735972214 -0.01982036808355628 0.2541976252604639 -0.02915274087902492 -0.2072653444002359 -0.9082844943338809 -0.1151243240990886 0.006605320916719466
4600000000 -0.1131321297501071 -0.01221858686764104 -0.07211722802228474 -0.9305334401006482 0.2543478950564276 -0.02838604127273479 -0.07568057250339481 -0.01968179866177827
  -0.07211720777889713 -0.9305332532762658 -0.1129056319814552 -0.009374326438790232 -0.07630874114496682 -0.01977576218686086 0.2542104845518783 -0.02960056164841664
  0.2543223546632897 -0.02838356624671496 -0.07630129716604657 -0.01977359880952636 -0.1144476760788253 0.008244537983468102 -0.2089369043196416 -0.9076818816838922
  -0.07568613966849676 -0.01968329023671144 0.2542288822418243 -0.0296022038520729 -0.2089697739419654 -0.9078389036113159 -0.1151315222213769 0.006796314878571448
4605000000 -0.1131971807801058 -0.01205125606407135 -0.07372170501970732 -0.9303519308324522 0.2543801964612858 -0.02883352215584575 -0.07584376993590336 -0.01954409070360658
  -0.07372168443138712 -0.9303517438719878 -0.1129663576657518 -0.009201788290678102 -0.07647298288670575 -0.01963616383564731 0.2542405013800325 -0.03005009149778332
  0.2543546519892119 -0.02883100266736243 -0.07646552248295467 -0.01963401380223879 -0.1144512558589103 0.008435512643025314 -0.2106400570086251 -0.9072332923579371
  -0.07584934930386095 -0.01954557230771068 0.2542589019618547 -0.03005176645822898 -0.2106732212668069 -0.9073902429494139 -0.1151381881262753 0.006987290642861185
4610000000 -0.1132618452774593 -0.01188376611754462 -0.07532570263685022 -0.9301677658684274 0.2544112677533837 -0.02928110198094525 -0.07600675249805236 -0.01940574291694917
  -0.07532568170307484 -0.9301675787724791 -0.1130266786887396 -0.009029094385224258 -0.07663700414758133 -0.01949592094382408 0.2542692808806114 -0.03049971748851699
  0.2543857193245794 -0.0292785380183622 -0.07662952733958248 -0.01949378431805902 -0.1144543025292758 0.008626456792761866 -0.2123422227783108 -0.9067816359144079
  -0.07601234405412861 -0.01940721450279376 0.2542876842643136 -0.03050142521502851 -0.2123756815160648 -0.9069385146376939 -0.115144322107503 0.00717824678428064
4615000000 -0.1133261230661527 -0.01171611783405645 -0.07692921702566974 -0.9299809466102421 0.2544411087813872 -0.0297287772857785 -0.07616951797815448 -0.01926675551547805
  -0.07692919574591725 -0.9299807593794096 -0.113086594859244 -0.008856245590312981 -0.07680080269044685 -0.01935503373822119 0.2542968229059299 -0.03094943613836068
  0.2544155565180778 -0.0297261688378056 -0.07679330949900412 -0.01935291058379779 -0.1144568164289144 0.008817368984476852 -0.2140433967764769 -0.9063269146469538
  -0.07617512170744853 -0.01926821703564387 0.2543152290014983 -0.03095117663996507 -0.2140771498366475 -0.906483720970172 -0.1151499244616315 0.007369181879648797
4620000000 -0.1133900139708287 -0.01154831201868701 -0.07853224434244793 -0.9297914744626772 0.2544697194024508 -0.03017654460803803 -0.07633206416437942 -0.01912712872030987
  -0.07853222271619756 -0.9297912870975613 -0.1131461059869597 -0.008683242773064382 -0.07696437627802021 -0.01921350245323841 0.2543231273168444 -0.03139924396502943
  0.2544441634268805 -0.03017389166372965 -0.07695686672415814 -0.01921139283383526 -0.1144587978998469 0.009008247772232894 -0.2157435741564931 -0.9058691308537091
  -0.07633768005182864 -0.01912858012738903 0.2543415360342478 -0.03140101725050388 -0.215777621381057 -0.9060258642453576 -0.1151549954880708 0.00756009450791069
4625000000 -0.1134535178167773 -0.01138034947560928 -0.08013478074777659 -0.9295993508336167 0.2544970994822202 -0.03062440048537235 -0.07649438884478126 -0.01898686276000575
  -0.08013475877450757 -0.9295991633348202 -0.1132052118824421 -0.008510086799842177 -0.07712772267290507 -0.01907132733084669 0.2543481939827545 -0.03184913748622122
  0.254471539916652 -0.03062170303412946 -0.07712019677786938 -0.01906923131012195 -0.1144602472871086 0.009199091712356005 -0.217442750077311 -0.905408286837286
  -0.0765000168751596 -0.01898830400660209 0.2543666052319461 -0.03185094356409397 -0.2174770913073759 -0.9055649467662321 -0.1151595354890599 0.007750983250135942
4630000000 -0.1135166344299247 -0.01121223100809674 -0.0817368224065509 -0.9294045771340312 0.2545232488948359 -0.03107234145540006 -0.0766564898073189 -0.01884595787057241
  -0.08173680008574544 -0.9294043895021595 -0.1132639123570965 -0.008336778536260362 -0.07729083963761706 -0.01892850862058957 0.2543720227816072 -0.03229911321962807
  0.2544976858615501 -0.03106959948696892 -0.07728329742287456 -0.01892642626217982 -0.114461164938737 0.00938989936343535 -0.2191409197034453 -0.9049443849047546
  -0.07666212996523783 -0.0188473889093028 0.2543904364725238 -0.03230095209817843 -0.2191755547792553 -0.9051009708402389 -0.1151635447696512 0.007941846689517017
4635000000 -0.113579363636823 -0.01104395741853144 -0.08333836548795968 -0.9292071547779692 0.2545481675229372 -0.03152036405572134 -0.07681836483988216 -0.01870441429546234
  -0.0833383428190987 -0.9292069670136275 -0.1133222072231694 -0.008163318847191065 -0.07745372493460703 -0.01878504657958343 0.2543946135998997 -0.03274916768295037
  0.2545226011442306 -0.03151757756019324 -0.07744616642184567 -0.01878297794710324 -0.1144615512057588 0.009580669286322712 -0.2208380782049703 -0.9044774273676325
  -0.07682401710978985 -0.01870583507895657 0.2544130296424629 -0.03275103937020758 -0.2208730069659016 -0.9046339387792705 -0.1151670236376998 0.008132683411367964
4640000000 -0.1136417052646394 -0.01087552950841201 -0.08493940616547573 -0.9290070851825424 0.2545718552576645 -0.03196846482392859 -0.07698001173031349 -0.01856223228557518
  -0.08493938314804277 -0.9290068972863385 -0.1133800962937389 -0.007989708596771497 -0.07761637632628644 -0.01864094147251918 0.254415966332682 -0.03319929739390643
  0.2545462856558492 -0.03196563379174087 -0.07760880153741573 -0.01863888662956002 -0.1144614064421778 0.009771400044131944 -0.222534220757498 -0.9040074165418727
  -0.07698567609649574 -0.01856364276647669 0.2544343846367991 -0.03320120189765077 -0.2225694430420651 -0.9041638528996543 -0.1151699724038527 0.008323492003122662
4645000000 -0.1137036591411459 -0.01070694807836182 -0.08653994061684574 -0.9288043697679113 0.2545943119986629 -0.03241664029761896 -0.07714142826643378 -0.0184194120992573
  -0.08653991725032449 -0.9288041817404531 -0.1134375793827046 -0.007815948648411822 -0.07777879157505067 -0.01849619357166192 0.2544360808835603 -0.03364949887024538
  0.2545687392960663 -0.03241376471955437 -0.07777120053220034 -0.01849415258179234 -0.1144607310049624 0.00996209020223905 -0.2242293425421748 -0.9035343547478488
  -0.07714710471301298 -0.01842081223022374 0.2544545013591244 -0.0336514361980076 -0.2242648581880277 -0.9036907155221392 -0.1151723913815337 0.008514271054333281
4650000000 -0.1137652250947087 -0.01053821392813721 -0.0881399650240807 -0.9285990099572764 0.2546155376540863 -0.03286488701440731 -0.07730261223606333 -0.01827595400230301
  -0.08813994130795619 -0.9285988217991751 -0.1134946563047794 -0.007642039864802427 -0.07794096844330428 -0.01835080315685291 0.2544549571647007 -0.03409976862975991
  0.2545899619730497 -0.03286196688159423 -0.07793336116882518 -0.0183487760836165 -0.1144595252540326 0.01015273832828079 -0.2259234387456639 -0.9030582443103399
  -0.07730830074699957 -0.01827734373600693 0.2544733797215917 -0.03410173878882187 -0.2259592475895884 -0.9032145289718829 -0.1151742808869344 0.008705019156668383
4655000000 -0.1138264029542782 -0.01036932785663574 -0.08973947557344879 -0.9283910071768624 0.2546355321406006 -0.03331320151193625 -0.0774635614270478 -0.01813185826795464
  -0.08973945150720582 -0.9283908188887297 -0.113551326875479 -0.007467983107921624 -0.07810290469348334 -0.01820477051550962 0.2544725950968315 -0.03455010319029749
  0.2546099536034784 -0.03331023681584845 -0.07809528120994863 -0.01820275742242501 -0.1144577895522476 0.01034334299215433 -0.2276165045601308 -0.9025790875585248
  -0.077469261986138 -0.0181332375570836 0.2544910196449162 -0.03455210618769089 -0.227652606438054 -0.902735295578441 -0.1151756412389994 0.008895734903910891
4660000000 -0.1138871925493784 -0.01020029066190463 -0.0913384684554604 -0.9281803628559081 0.254654295383387 -0.03376158032789017 -0.07762427362728118 -0.01798712517690285
  -0.09133844403858786 -0.9281801744383577 -0.1136075909111139 -0.007293779239043382 -0.07826459808808271 -0.01805809594262637 0.2544889946092476 -0.03500049906977249
  0.2546287141125458 -0.03375857106034737 -0.07825695841828538 -0.01805609689318635 -0.1144555242653948 0.01053390276601712 -0.2293085351832398 -0.9020968868259613
  -0.07762998621815914 -0.01798849397416041 0.2545074210583806 -0.03500253491228011 -0.2293449299302256 -0.9022530176757498 -0.1151764727594169 0.009086416891956807
4665000000 -0.113947593710097 -0.01003110314114916 -0.09293693986486615 -0.9279670784266539 0.2546718273161463 -0.03421002000000584 -0.07778474662472899 -0.01784175501728679
  -0.09293691509684961 -0.9279668898803015 -0.1136634482287794 -0.00711942911874508 -0.07842604638967783 -0.0179107797407751 0.2545041556398128 -0.03545095278617983
  0.2546462434339644 -0.03420696615317307 -0.07841839055663258 -0.01790879479844596 -0.1144527297621757 0.01072441622428492 -0.2309995258181298 -0.9016116444505796
  -0.07779047123086569 -0.01784311327539303 0.2545225838998376 -0.03545302148033461 -0.2310362132683844 -0.9017676976021197 -0.1151767757726049 0.009277063718812775
4670000000 -0.114007606267075 -0.009861766090741303 -0.09453488600063865 -0.9277511553243276 0.2546881278811017 -0.03465851706608587 -0.07794497820745147 -0.0176957480846949
  -0.0945348608809667 -0.9277509666497895 -0.113718898646347 -0.006944933606915356 -0.07858724736095027 -0.01776282222010585 0.2545180781349642 -0.03590146085760557
  0.2546625415099674 -0.03465541863247413 -0.07857957538789262 -0.01776085144832645 -0.1144494064141947 0.01091488194363202 -0.2326894716734087 -0.9011233627746651
  -0.077950714812155 -0.01769709575638685 0.2545365081157126 -0.03590356240969106 -0.2327264516602811 -0.9012793377002156 -0.1151765506057008 0.009467673984594159
4675000000 -0.114067230051497 -0.009692280306228217 -0.09613230306596851 -0.9275325949871348 0.2547031970290035 -0.03510706806401061 -0.07810496616362937 -0.01754910468216467
  -0.09613227759413288 -0.9275324061850294 -0.1137739419824553 -0.006770293562761946 -0.07874819876471092 -0.01761422369834732 0.2545307620497152 -0.0363520198022408
  0.2546776082913157 -0.03510392503647599 -0.07874051067509832 -0.0176122671605281 -0.1144455545959463 0.01110529850298989 -0.2343783679631436 -0.9006320441448482
  -0.07811071475004429 -0.01755044172019658 0.2545491936610088 -0.03635415421829082 -0.2344156403191223 -0.9007879403170507 -0.1151757975885486 0.009658246291523129
4680000000 -0.1141264648950809 -0.009522646582340847 -0.09772918726825623 -0.927311398856245 0.2547170347191323 -0.03555566953174975 -0.07826470828158456 -0.01740182512018228
  -0.0977291614437467 -0.9273112099271915 -0.1138285780565011 -0.006595509844819589 -0.07890889836392644 -0.01746498450080661 0.2545422073476587 -0.03680262613839284
  0.2546914437372977 -0.03555248190349398 -0.07890119418143628 -0.01746304226032966 -0.1144411746848044 0.01129566448354625 -0.2360662099068414 -0.9001376909120924
  -0.07827046883269344 -0.01740315147732655 0.2545606404993094 -0.03680479342419212 -0.2361037744635588 -0.9002935078039713 -0.1151745170536885 0.009848779243926504
4685000000 -0.1141853106300684 -0.009352865713003134 -0.09932553481909445 -0.9270875683757795 0.2547296409193023 -0.03600431800737545 -0.07842420234980628 -0.01725390971668355
  -0.09932550864140255 -0.9270873793203995 -0.1138828066886307 -0.006420583310958467 -0.07906934392174053 -0.01731510496037054 0.2545524140009714 -0.03725327638449927
  0.2547040478157367 -0.03600108577194661 -0.07906162367027202 -0.01731317708058817 -0.1144362670610083 0.01148597846874382 -0.2377529927294392 -0.8996403054316809
  -0.07842997484842755 -0.01725522534573151 0.2545708486027813 -0.03725547654558217 -0.2377908493176728 -0.8997960425166428 -0.1151727093363437 0.01003927144823319
4690000000 -0.114243767089215 -0.009182938491340251 -0.1009213419342679 -0.9268611049928004 0.2547410156058671 -0.0364530100290756 -0.07858344615697316 -0.01710535879705356
  -0.1009213154028851 -0.9268609158117168 -0.1139366276997307 -0.006245514818391717 -0.07922953320150077 -0.01716458541750554 0.2545613819904165 -0.03770396705913819
  0.2547154205029925 -0.03644973318036694 -0.07922179690517429 -0.01716267196173916 -0.1144308321076521 0.01167623904427967 -0.2394387116612918 -0.8991398900632045
  -0.07858923058576338 -0.01710666365081506 0.2545798179521798 -0.03770620010079029 -0.2394768601109649 -0.8992955468150415 -0.1151703747744106 0.01022972151297255
4695000000 -0.1143018341057801 -0.009012865709688025 -0.102516604833735 -0.9266320101572991 0.2547511587637217 -0.03690174213516488 -0.07874243749197757 -0.01695617269412622
  -0.1025165779481558 -0.9266318208511355 -0.1139900409114202 -0.006070305223684146 -0.07938946396678216 -0.01701342622025719 0.2545691113053482 -0.03815469468104397
  0.2547255617839665 -0.03689842066741498 -0.07938171164993842 -0.01701152725179791 -0.1144248702106723 0.01186644479810401 -0.2411233619381609 -0.8986364471705507
  -0.07874823383342942 -0.01695746672543134 0.2545875485368506 -0.03815696060830103 -0.2411618020783429 -0.8987920230634389 -0.1151675137084464 0.01042012804877174
4700000000 -0.1143595115135175 -0.00884264815960163 -0.1041113197416235 -0.9264002853221823 0.2547600703863067 -0.03735051086409819 -0.07890117414394886 -0.01680635174818503
  -0.1041112925013435 -0.9264000958915654 -0.1140430461460413 -0.005894955382760184 -0.07954913398141004 -0.01686162772425153 0.2545756019437151 -0.0386054557691182
  0.2547344716521049 -0.03734714477189149 -0.07954136566861206 -0.01685974330635777 -0.1144183817588362 0.01205659432041841 -0.2428069388011998 -0.8981299791218891
  -0.07890698238039244 -0.0168076349098837 0.2545940403547349 -0.03860775458676541 -0.2428456704601062 -0.898285473630392 -0.1151641264816572 0.01061048966835313
4705000000 -0.1144167991466659 -0.008672286631864781 -0.1057054828862201 -0.9261659319432618 0.2547677504756132 -0.03779931275448323 -0.07905965390227723 -0.01665589630696165
  -0.1057054552907346 -0.9261657423888188 -0.1140956432266511 -0.005719466150912334 -0.07970854100948734 -0.01670919029269432 0.254580853912064 -0.03905624684244122
  0.2547421501094039 -0.03779590203274975 -0.07970075672551763 -0.01670732048859234 -0.1144113671437294 0.01224668620367516 -0.2444894374969398 -0.8976204882896642
  -0.07906547401587947 -0.01665716855192486 0.2545992934123727 -0.03905857855501582 -0.2445284605019355 -0.897775900888731 -0.1151602134398881 0.01080080498653219
4710000000 -0.1144736968399396 -0.008501781916498911 -0.107299090499959 -0.9259289514792434 0.2547741990421868 -0.03824814434509401 -0.07921787455663697 -0.016504806725637
  -0.1072990625487634 -0.9259287618016028 -0.1141478319770131 -0.005543838382809528 -0.07986768281541504 -0.01655611429637107 0.2545848672255432 -0.03950706442028856
  0.2547485971664119 -0.0382446889891094 -0.07985988258527807 -0.01655425916925373 -0.114403826759745 0.01243671904257544 -0.2461708532772822 -0.8971079770505769
  -0.07922370652940176 -0.01650606800675658 0.2546033077249059 -0.03950942903207649 -0.2462101674548803 -0.8972633072155471 -0.1151557749316109 0.01099107262021498
4715000000 -0.1145302044285184 -0.008331134802772269 -0.1088921388194114 -0.9256893453917124 0.2547794161051309 -0.03869700217488237 -0.07937583389701061 -0.01635308336683967
  -0.1088921105120048 -0.925689155591505 -0.114199612221589 -0.005368072932505494 -0.08002655716391974 -0.01640240011364786 0.2545876419079068 -0.03995790502214058
  0.2547538128422355 -0.03869350218026771 -0.08001874101284173 -0.0164005597266734 -0.1143957610040715 0.01262669143406848 -0.247851181399481 -0.8965924477855798
  -0.07938167771077904 -0.01635433363702989 0.2546060833160832 -0.03996030253717887 -0.2478907865753448 -0.8967476949921794 -0.1151508113079138 0.01118129118839538
4720000000 -0.1145863217480392 -0.008160346079209372 -0.1104846240852784 -0.9254471151451268 0.2547834016921116 -0.0391458827829917 -0.07953352971371148 -0.01620072660064707
  -0.1104845954211587 -0.9254469252229839 -0.1142509837855301 -0.005192170653447451 -0.08018516182007682 -0.01624804813046993 0.2545891779915193 -0.0404087651676972
  0.2547577971645427 -0.03914233814571375 -0.08017732977350329 -0.01624622254676217 -0.114387170276681 0.01281660197734958 -0.2495304171261331 -0.896073902879861
  -0.0795393853501621 -0.01620196581284413 0.2546076202182636 -0.04041119558977319 -0.2495703131250784 -0.8962290666042074 -0.1151453229224892 0.0113714593121527
4725000000 -0.1146420486345857 -0.007989416533600188 -0.1120765425423787 -0.9252022622067989 0.254786155839361 -0.03959478270876975 -0.07969095979740935 -0.01604773680458317
  -0.1120765135210458 -0.9252020721633546 -0.1143019464946695 -0.005016132398484621 -0.08034349454933398 -0.01609305874036271 0.2545894755173576 -0.04085964137689037
  0.2547605501695668 -0.03959119342514117 -0.08033564663293216 -0.01609124802300954 -0.1143780549803177 0.01300644927385886 -0.2512085557251637 -0.8955523447228335
  -0.07969682723805631 -0.01604896491174665 0.2546079184724201 -0.04086210470954182 -0.2512487423711571 -0.8957074244414344 -0.1151393101316234 0.01156157561464887
4730000000 -0.1146973849246802 -0.007818346953009836 -0.1136678904396382 -0.924954788046891 0.2547876785916832 -0.04004369849178279 -0.07984812193915118 -0.01589411436361974
  -0.1136678610605942 -0.92495459788278 -0.1143525001755134 -0.004839959019876884 -0.08050155311753655 -0.01593743234443082 0.2545885345350168 -0.04131053016989802
  0.2547620719021119 -0.04004006455846103 -0.08049368935719471 -0.0159356365564838 -0.1143684155204872 0.01319623192727975 -0.2528855924698153 -0.8950277757081263
  -0.07985400116534705 -0.01589533131873229 0.2546069781281433 -0.04131302641641229 -0.252926069585976 -0.8951827708978809 -0.1151327732941855 0.0117516387211257
4735000000 -0.1147523304552739 -0.007647138123787804 -0.1152586640300849 -0.9247046941383995 0.2547879700024561 -0.04049262667182633 -0.08000501393038756 -0.01573985967017448
  -0.1152586342928297 -0.9247045038542585 -0.114402644655234 -0.004663651369303396 -0.08065933529095122 -0.01578116935135827 0.2545863551027134 -0.0417614280671563
  0.2547623624155555 -0.04048894808581482 -0.08065145571277813 -0.01577938855583177 -0.1143582523054438 0.01338594854353699 -0.2545615226386331 -0.8945001982335672
  -0.08001090492332079 -0.01574106542624324 0.2546047992436472 -0.04176395723057121 -0.2546022900472348 -0.8946551083717688 -0.1151257127716168 0.01194164725890228
4740000000 -0.1148068850637382 -0.00747579083157785 -0.1168488595708305 -0.9244519819571452 0.2547870301336383 -0.04094156378894087 -0.08016163356299336 -0.01558497312411174
  -0.1168488294748681 -0.9244517915536113 -0.1144523797616604 -0.004487210297871633 -0.08081683883629039 -0.01562427017740788 0.2545829372872896 -0.04221233158937306
  0.2547614217718543 -0.04093784054758898 -0.08080894346661645 -0.01562250443727813 -0.11434756574618 0.01357559773079526 -0.2562363415154535 -0.8939696147011813
  -0.0801675363036907 -0.01558616763416812 0.2546013818857708 -0.04221489367247726 -0.2562773990379256 -0.8941244392655131 -0.1151181289279196 0.01213159985737176
4745000000 -0.1148610485878553 -0.007304305861327336 -0.1184384733230693 -0.9241966529817606 0.2547848590557709 -0.04139050638342442 -0.08031797862929393 -0.01542945513274058
  -0.1184384428679032 -0.9241964624594738 -0.1145017053232716 -0.004310636656125926 -0.08097406152073634 -0.01546673524642089 0.2545782811642169 -0.04266323725754226
  0.2547592500415479 -0.04138673848442632 -0.08096615038611209 -0.01546498462462558 -0.1143363562564151 0.0137651780994574 -0.2579100443893917 -0.8934360275171692
  -0.08032389309861866 -0.01543063834984129 0.2545967261299836 -0.04266583226287381 -0.2579513918463176 -0.8935907659857116 -0.1151100221296465 0.01232149514799894
4750000000 -0.1149148208658103 -0.007132683997297318 -0.1200275015520605 -0.9239387086936802 0.2547814568479845 -0.04183945099584445 -0.08047404692208782 -0.01527330611081486
  -0.1200274707371965 -0.9239385180532812 -0.1145506211691881 -0.004133931294056722 -0.08113100111196683 -0.01530856498981632 0.254572386817601 -0.04311414159295679
  0.2547558473037627 -0.04183563843723989 -0.08112307423916333 -0.01530682954925397 -0.1143246242525839 0.01395468826216252 -0.2595826265548266 -0.8928994390919021
  -0.08047997310073972 -0.01527447798804221 0.2545908320603898 -0.04311676952280438 -0.2596242637659485 -0.893054090943132 -0.1151013927458897 0.01251133176431691
4755000000 -0.1149682017361812 -0.006960926023071997 -0.1216159405271249 -0.9236781505771298 0.2547768235980012 -0.04228839416705326 -0.08062983623466939 -0.01511652648053222
  -0.1216159093520678 -0.9236779598192614 -0.1145991271291646 -0.003957095061109219 -0.08128765537817711 -0.01514975984659111 0.254565254340185 -0.0435650411172209
  0.2547512136462177 -0.04228453694722829 -0.08127971279418643 -0.01514803965011974 -0.1143123701538251 0.01414412683378426 -0.2612540833113914 -0.8923598518399125
  -0.08063577410318559 -0.01511768697099487 0.2545836997697323 -0.04356770197362339 -0.2612960100956086 -0.8925144165526989 -0.1150922411482712 0.01270110834192422
4760000000 -0.1150211910379312 -0.00678903272156892 -0.1232037865216282 -0.923414980119113 0.2547709594021413 -0.04273733243820153 -0.08078534436085347 -0.01495911667153333
  -0.1232037549858851 -0.9234147892444183 -0.1146472230335824 -0.003780128806192749 -0.08144402208810542 -0.01499032026331879 0.2545568838333547 -0.04401593235226604
  0.2547453491652274 -0.04273343055588694 -0.08143606382014063 -0.01498861537375537 -0.1142995943819711 0.01433349243142868 -0.2629244099639584 -0.8918172681798767
  -0.08079129389960828 -0.01496026572836676 0.2545753293593955 -0.04401862613701229 -0.262966626139327 -0.8919717452334894 -0.1150825677109306 0.01289082351848177
4765000000 -0.1150737886103999 -0.006617004875048646 -0.1247910358129766 -0.9231491988094014 0.254763864365326 -0.04318626235075061 -0.08094056909499794 -0.01480107712090098
  -0.1247910039160553 -0.923149007818528 -0.1146949087134412 -0.003603033377689603 -0.08160009901105809 -0.01483024669414908 0.2545472754071418 -0.04446681182036269
  0.2547382539657075 -0.04318231580502221 -0.08159212508655259 -0.01482855717426902 -0.1142862973615363 0.01452278367443243 -0.2645936018226263 -0.8912716905346107
  -0.08094653028420351 -0.01480221469726785 0.2545657209394123 -0.04446953853499212 -0.2646361072063636 -0.891426079408716 -0.1150723728105166 0.01308047593370984
4770000000 -0.1151259942932941 -0.006444843265125009 -0.126377684682603 -0.9228808081405265 0.2547555386010829 -0.04363518044648629 -0.08109550823202866 -0.01464240827315905
  -0.126377652424013 -0.9228806170341189 -0.1147421840003525 -0.003425809623464351 -0.08175588391693248 -0.01466953960080731 0.2545364291802291 -0.04491767604413537
  0.254729928161179 -0.04363118923676633 -0.08174789436354002 -0.01466786551334355 -0.1142724795197062 0.01471199918436069 -0.2662616542027065 -0.8907231213310564
  -0.08110148105173358 -0.01464353432224985 0.2545548746284662 -0.04492043568993731 -0.2663044486111918 -0.8908774215057184 -0.115061656826175 0.01327006422938449
4775000000 -0.1151778079266805 -0.006272548672775047 -0.1279637294159577 -0.9226098096077627 0.2547459822315505 -0.04408408326753452 -0.08125015956746223 -0.01448311058027163
  -0.1279636967952099 -0.9226096183864706 -0.1147890487265314 -0.003248458390873091 -0.08191137457624099 -0.01450819945259348 0.2545243452799536 -0.04536852154657542
  0.2547203718737728 -0.04408004739359005 -0.08190336942183642 -0.01450654086023563 -0.1142581412863271 0.01490113758500517 -0.2679285624247156 -0.8901715630002707
  -0.0812561439975521 -0.01448422505530548 0.2545427905538959 -0.04537131412458949 -0.2679716456734873 -0.8903257739559556 -0.1150504201395397 0.01345958704933516
4780000000 -0.1152292293509766 -0.006100121878349246 -0.1295491663025001 -0.9223362047091218 0.254735195387482 -0.0445329673563729 -0.08140452089742893 -0.01432318450164179
  -0.1295491333191048 -0.9223360133735942 -0.11483550272479 -0.003070980526772699 -0.08206656876013725 -0.01434622672638146 0.2545110238423123 -0.04581934485105641
  0.2547095852342339 -0.04452888681831645 -0.08205854803281529 -0.01434458369177538 -0.1142432830938942 0.0150901975023818 -0.2695943218143545 -0.8896170179774177
  -0.0814105169176267 -0.01432428735586666 0.2545294688517005 -0.04582217036207184 -0.2696376937181143 -0.8897711391949893 -0.1150386631347217 0.01364904303944022
4785000000 -0.1152802584069425 -0.00592756366158172 -0.1311339916356853 -0.9220599949453393 0.2547231782082521 -0.04498182925584627 -0.081558590018697 -0.01416263050411089
  -0.1311339582891552 -0.9220598034962286 -0.1148815458285296 -0.002893376877530143 -0.08222146424043918 -0.0141836219066182 0.2544964650119659 -0.04627014248134598
  0.2546975683819269 -0.0449777040541352 -0.08221342796851518 -0.01418199449236494 -0.1142279053775415 0.01527917756472874 -0.2712589277025015 -0.8890594887017549
  -0.08156459760856324 -0.01416372169080431 0.254514909666543 -0.04627300092590296 -0.271302588075114 -0.8892135196624815 -0.1150263861982985 0.01383843084762488
4790000000 -0.1153308949356731 -0.005754874801600396 -0.1327182017129575 -0.9217811818198662 0.2547099308418581 -0.04543066550917968 -0.0817123647286966 -0.01400144906195659
  -0.1327181680028062 -0.9217809902578249 -0.1149271778717341 -0.002715648289031934 -0.08237605878965235 -0.01402038548532279 0.2544806689422425 -0.04672091096162259
  0.2546843214648402 -0.04542649564461781 -0.08236800700166187 -0.01401877375397783 -0.1142120085750317 0.01546807640250402 -0.2729223754251957 -0.8884989776166272
  -0.08171838386762897 -0.01400252853442609 0.2544991131517556 -0.0467238023400111 -0.2729663240796911 -0.8886529178021763 -0.1150135897193058 0.01402774912385679
4795000000 -0.1153811387785895 -0.005582056076937719 -0.1343017928357357 -0.9214997668388555 0.2546954534449288 -0.04587947265999379 -0.08186584282554198 -0.01383964065689279
  -0.1343017587614777 -0.9214995751645374 -0.1149723986889624 -0.002537795606693717 -0.08253035018099632 -0.01385651796208514 0.2544636357951428 -0.04717164681648702
  0.2546698446395904 -0.04587525813372917 -0.08252228290569477 -0.01385492197615766 -0.1141955931267439 0.01565689264838321 -0.2745846603236272 -0.8879354871694513
  -0.08187187349277535 -0.01384070836847638 0.2544820794693429 -0.04717457112874718 -0.2746288970722006 -0.8880893360618972 -0.1150002740892252 0.01421699652014327
4800000000 -0.1154309897774317 -0.005409108265540789 -0.1358847613094058 -0.9212157515111534 0.2546797461827254 -0.04632824725231732 -0.08201902210805623 -0.01367720577806703
  -0.1358847268705562 -0.9212155597252146 -0.1150172081153421 -0.002359819675469779 -0.08268433618842636 -0.01369201984406527 0.254445365741345 -0.04762234657097878
  0.2546541380714276 -0.04632398806584371 -0.08267625345479111 -0.01369043966601744 -0.114178659475665 0.01584562493725717 -0.2762457777441215 -0.887369019811712
  -0.08202506428266262 -0.01367826168213448 0.2544638087899871 -0.04762530381690035 -0.2762903023981331 -0.8875227768935298 -0.1149864397019759 0.01440617169052747
4805000000 -0.11548044777425 -0.005236032144781827 -0.1374671034433121 -0.9209291373482874 0.2546628092291493 -0.04677698583060277 -0.08217190037579483 -0.01351414492206021
  -0.1374670686393871 -0.9209289454513866 -0.1150616059865615 -0.002181721339862321 -0.08283801458666144 -0.01352689164599161 0.2544258589602084 -0.04807300675058904
  0.2546372019342402 -0.04677268198575874 -0.08282991642388801 -0.0135253273382381 -0.1141612080673774 0.01603427190622971 -0.2779057230381293 -0.8867995779989467
  -0.08217795403668378 -0.01351518897201229 0.2544443012930533 -0.04807599692971304 -0.277950535408107 -0.8869532427530189 -0.1149720869539051 0.01459527329108521
4810000000 -0.1155295126113977 -0.005062828491468985 -0.1390488155507422 -0.9206399258644601 0.2546446427667451 -0.04722568493973999 -0.08232447542906801 -0.01335045859288437
  -0.1390487803812608 -0.9206397338572541 -0.1151055921388643 -0.002003501443931601 -0.08299138315120411 -0.01336113389016074 0.2544051156397784 -0.04852362388127615
  0.2546190364105589 -0.04722133643870997 -0.08298326958870894 -0.01335958551506769 -0.1141432393500501 0.01622283219461502 -0.279564491562211 -0.8862271641907394
  -0.08233054055498604 -0.01335149074215464 0.2544235571665925 -0.04852664699289287 -0.2796095914578509 -0.8863807361003532 -0.1149572162437762 0.01478429997992095
4815000000 -0.1155781841315227 -0.004889498081856841 -0.1406298939489209 -0.9203481185765302 0.2546252469867057 -0.04767434112507175 -0.08247674506896502 -0.01318614730198198
  -0.1406298584134008 -0.9203479264596793 -0.1151491664090416 -0.001825160831305452 -0.08314443965836849 -0.01319474710643509 0.2543831359767902 -0.0489741944894789
  0.2545996416915622 -0.04766994797038492 -0.08313631072578835 -0.01319321472631908 -0.1141247537744274 0.0164113044439352 -0.2812220786780231 -0.8856517808507087
  -0.08248282163849679 -0.01318716750403636 0.2544015766073462 -0.04897725053262866 -0.2812674659081908 -0.8858052593995576 -0.1149418279727612 0.01497325041716436
4820000000 -0.1156264621775612 -0.004716041691657095 -0.1422103349589974 -0.9200537170040118 0.2546046220888775 -0.04812295093240648 -0.08262870709737762 -0.01302121156822381
  -0.1422102990569588 -0.9200535247781787 -0.1151923286344262 -0.001646700345188957 -0.08329718188530216 -0.01302773183224224 0.2543599201766755 -0.04942471510213219
  0.254579017977082 -0.0481185131269368 -0.08328903761249259 -0.01302621550937041 -0.1141057517938184 0.01659968729791779 -0.2828784797523097 -0.8850734304465004
  -0.08263479508894513 -0.01302221977656189 0.2543783598207534 -0.04942780407560593 -0.2829241541250401 -0.8852268151186846 -0.1149259225444299 0.01516212326496682
4825000000 -0.1156743465927286 -0.004542460096049305 -0.1437901349060364 -0.9197567226690578 0.2545827682817657 -0.04857151090803422 -0.08278035931702382 -0.0128556519179075
  -0.1437900986370002 -0.9197565303349058 -0.1152350786528853 -0.001468120828374376 -0.08344960761001095 -0.01286008861257372 0.2543354684535644 -0.04987518224668094
  0.2545571654756063 -0.04856702845500158 -0.08344144802704842 -0.01285858840916163 -0.1140862338640883 0.0167879794024931 -0.2845336901568851 -0.8844921154497746
  -0.0827864587088864 -0.0128566480860627 0.2543539070209515 -0.04987830414901961 -0.2845796514793843 -0.8846454057298054 -0.1149095003647413 0.01535091718749761
4830000000 -0.1157218372205129 -0.004368754069691665 -0.1453692901190082 -0.9194571370964519 0.2545596857825381 -0.0490200175987412 -0.08293169953147114 -0.01268946888475611
  -0.1453692534824965 -0.919456944654646 -0.1152774163028148 -0.001289423123250941 -0.0836017146113848 -0.01269181799998225 0.2543097810302918 -0.05032559245109535
  0.2545340844042859 -0.04901549050170983 -0.08359353974856527 -0.01269033397819465 -0.1140662004436462 0.01697617940579147 -0.2861877052686219 -0.883907838336199
  -0.08293781030172531 -0.01269045296629626 0.254328218430784 -0.05032874728059004 -0.2862339533472679 -0.8840610337089947 -0.1148925618420329 0.01553963085093973
4835000000 -0.1157689339046674 -0.004194924386732247 -0.1469477969307743 -0.9191549618135997 0.254535374817031 -0.04946846755182412 -0.08308272554515977 -0.01252266300991621
  -0.1469477599263104 -0.9191547692648043 -0.1153193414231322 -0.001110608071815181 -0.08375350066921981 -0.01252292055458195 0.254282858138402 -0.05077594224388577
  0.2545097749889392 -0.04946389581470319 -0.08374531055705879 -0.01252145277653116 -0.1140456519934365 0.01716428595814105 -0.2878405204694393 -0.8833206015854405
  -0.08308884767174038 -0.01252363495844413 0.2543012942818039 -0.05077912999857788 -0.2878870551097824 -0.8834737015363306 -0.1148751073870119 0.01572826292348671
4840000000 -0.115815636489203 -0.004020971820819432 -0.1485256516780829 -0.9188501983505141 0.2545098356197532 -0.04991685731510541 -0.08323343516342643 -0.01235523484195608
  -0.1485256143051909 -0.9188500056953987 -0.1153608538532713 -0.0009316765156802916 -0.08390496356424318 -0.01235339684404605 0.2542547000181524 -0.05122622815411735
  0.2544842374640564 -0.04991224094214936 -0.08389675823347556 -0.01235194537179101 -0.1140245889769283 0.01735229771206438 -0.2894921311462897 -0.8827304076811517
  -0.08323956862410581 -0.01235619461111005 0.2542731348142783 -0.05122944883179786 -0.2895389521530529 -0.8828834116958771 -0.1148571374127468 0.01591681207533847
4845000000 -0.1158619448183814 -0.003846897145113382 -0.1501028507015524 -0.9185428482398117 0.2544830684338921 -0.0503651834369483 -0.08338382619252806 -0.01218718493686424
  -0.1501028129597583 -0.9185426554790439 -0.1154019534331748 -0.0007526292960867841 -0.08405610107813886 -0.01218324744360427 0.2542253069185189 -0.05167644671142404
  0.2544574720728051 -0.05036052243275645 -0.08404788055971976 -0.01218181233915078 -0.1140030118601056 0.01754021332227592 -0.2911425326911428 -0.882137259110967
  -0.08338997096491571 -0.01218813248031866 0.2542437402771924 -0.05167970030963457 -0.2911896398682248 -0.8822901666756783 -0.1148386523346564 0.01610527697869732
4850000000 -0.1159078587367078 -0.003672701132296825 -0.1516793903456677 -0.9182329130166966 0.254455073511318 -0.0508134424662712 -0.08353389643966475 -0.01201851385804707
  -0.1516793522344965 -0.9182327201509483 -0.1154426400032896 -0.0005734672539122314 -0.08420691099357003 -0.0120124729360431 0.2541946790972007 -0.05212659444602608
  0.2544294790670347 -0.05080873683578733 -0.08419867531867331 -0.01201105426134178 -0.1139809211114574 0.01772803144567968 -0.2927917205009763 -0.8815411583664883
  -0.08354005250120826 -0.01201944912951315 0.254213110928257 -0.05212988096205821 -0.2928391136514522 -0.8816939689677503 -0.1148196525705022 0.01629365630776417
4855000000 -0.1159533780889241 -0.003498384554586344 -0.1532552669587617 -0.9179203942189558 0.2544258511125892 -0.05126163095256363 -0.08368364371300341 -0.01184922217632723
  -0.1532552284777425 -0.9179202012488973 -0.1154829134045592 -0.0003941912296815957 -0.08435739109420429 -0.01184107391170195 0.254162816820625 -0.05257666788874299
  0.2544002587072822 -0.05125688070107655 -0.08434914029422345 -0.01183967172864843 -0.1139583172019676 0.01791575074136546 -0.2944396899777628 -0.8809421079432808
  -0.08368981104098845 -0.01185014512955308 0.2541812470339103 -0.05257998731963857 -0.2944873689038829 -0.8810948210680721 -0.1148001385403783 0.01648194873873457
4860000000 -0.1159985027200018 -0.003323948183743586 -0.1548304768930118 -0.9176052933869445 0.2543954015069569 -0.05170974544590124 -0.08383306582170205 -0.01167931046994122
  -0.1548304380416732 -0.9176051003132506 -0.1155227734784195 -0.0002148020635774101 -0.08450753916473705 -0.01166905096847299 0.254129720363951 -0.05302666357100971
  0.2543698112627767 -0.05170495057904478 -0.08449927327128508 -0.01166766533890707 -0.1139352006051061 0.01810336987060658 -0.2960864365284527 -0.880340110340861
  -0.08383924439325158 -0.01168022105871291 0.2541481488693234 -0.053030015913561 -0.2961344010316443 -0.8804927254765736 -0.1147801106667028 0.0166701529497942
4865000000 -0.1160432324751352 -0.003149392791086465 -0.1564050165044258 -0.9172876120635814 0.2543637249723711 -0.05215778249696056 -0.08398216057593165 -0.01150877932453827
  -0.1564049772822967 -0.9172874188869261 -0.1155622200667917 -3.530059545011945e-05 -0.08465735299091795 -0.01149640471179819 0.2540953900110758 -0.05347657802489232
  0.2543381370114442 -0.05215294302071306 -0.0846490720358259 -0.01149503569750255 -0.1139115717968181 0.01829088749685662 -0.2977319555649662 -0.8797351680626899
  -0.08398835036800649 -0.01150967750267993 0.2541138167184057 -0.05347996327564107 -0.2977802054458357 -0.8798876846971309 -0.1147595693742091 0.01685826762111571
4870000000 -0.1160875671997352 -0.002974719147500552 -0.1579788821528308 -0.9169673517943344 0.254330821795484 -0.05260573865703543 -0.08413092578690046 -0.01133762933317699
  -0.1579788425594437 -0.9169671585153941 -0.1156012530120775 0.000144312335171686 -0.08480683035957168 -0.01132313575466777 0.2540598260546384 -0.05392640778310241
  0.2543052362399139 -0.05260085457771996 -0.08479853437489039 -0.01132178341736803 -0.1138874312555155 0.0184783022857467 -0.2993762425041752 -0.879127283616162
  -0.08413712677630066 -0.01133851505455172 0.2540782508738103 -0.05392982593834102 -0.2994247775625088 -0.8792797012375549 -0.1147385150899364 0.0170462914348537
4875000000 -0.1161315067394218 -0.002799928023450363 -0.1595520702018669 -0.9166445141272136 0.2542966922716571 -0.05305361047805153 -0.08427935926687866 -0.01116586109632401
  -0.159552030236753 -0.9166443207466662 -0.1156398721571525 0.0003240358890709101 -0.08495596905862615 -0.01114924471761828 0.2540230287960256 -0.05437614937901344
  0.2542711092435218 -0.0530486818023355 -0.08494765807662555 -0.01114790911898132 -0.1138627794620661 0.01866561290508183 -0.3010192927678962 -0.8785164595125997
  -0.08428557143024075 -0.01116673431483435 0.2540414516369363 -0.05437960043478442 -0.3010681128026582 -0.8786687776095847 -0.1147169482432217 0.01723422307514105
4880000000 -0.1161750509400184 -0.002625020188990941 -0.1611245770189708 -0.9163191006127608 0.2542613367049649 -0.05350139451258272 -0.08442745882921993 -0.0109934752218516
  -0.1611245366816636 -0.9163189071312859 -0.1156780773453617 0.0005038692273313646 -0.08510476687713356 -0.01097473222873019 0.2539849985453752 -0.0548257993466756
  0.2542357563263164 -0.05349642124747812 -0.08509644093030189 -0.010973413430364 -0.113837616899786 0.01885281802483857 -0.3026611017828695 -0.8779026982672427
  -0.0844336821430192 -0.01099433589143983 0.2540034193179371 -0.05482928329877221 -0.3027102065922071 -0.8780549163288772 -0.1146948692656902 0.01742206122808431
4885000000 -0.116218199647545 -0.002449996413779387 -0.1626963989753681 -0.9159911128040408 0.2542247554082006 -0.05394908731386579 -0.08457522228838499 -0.01082047232503516
  -0.1626963582654021 -0.9159909192223185 -0.1157158684205133 0.0006838115113273108 -0.08525322160529593 -0.01079959892362617 0.2539457356215818 -0.05527535422083314
  0.2541991778010642 -0.05394406946672922 -0.08524488072634076 -0.01079829698707887 -0.1138119440544281 0.01903991631716133 -0.3043016649807546 -0.8772860023992393
  -0.08458145672893497 -0.01082132039968402 0.2539641542357217 -0.05527887106479765 -0.3043510543619957 -0.8774381199150006 -0.1146722785912479 0.0176098045817602
4890000000 -0.1162609527082119 -0.002274857467086204 -0.1642675324460644 -0.9156605522566308 0.2541869487028809 -0.05439668543581737 -0.08472264745996674 -0.01064685302855118
  -0.1642674913629745 -0.9156603585753433 -0.1157532452268739 0.0008638619027131363 -0.08540133103448976 -0.01062384544546827 0.2539052403523023 -0.05572481053693759
  0.2541613739892544 -0.05439162301434968 -0.08539297525633682 -0.0106225604322274 -0.1137857614141747 0.01922690645635959 -0.3059409777981117 -0.8766663744316407
  -0.08472889300341903 -0.01064768846228437 0.2539236567179627 -0.05572836026806387 -0.3059906515477671 -0.8768183908914249 -0.114649176656072 0.01779745182621054
4895000000 -0.1163033099684136 -0.0020996041178072 -0.165837973809831 -0.9153274205286119 0.2541479169192517 -0.05484418543304876 -0.08486973216071274 -0.0104726179624743
  -0.1658379323531542 -0.9153272267484437 -0.1157902076091628 0.001044019563412485 -0.08554909295728985 -0.01044747244495602 0.2538635130739596 -0.05617416483116602
  0.2541223452211046 -0.05483907844529569 -0.08554072231308348 -0.01044620441644825 -0.1137590694696268 0.01941378711890404 -0.3075790356763874 -0.8760438168913924
  -0.08487598878305699 -0.01047344070935725 0.2538819271010996 -0.0561777474444974 -0.3076289935901522 -0.8761957317855144 -0.114625563898603 0.01798500165343834
4900000000 -0.1163452712747228 -0.001924237134474909 -0.1674077194491964 -0.9149917191805601 0.2541076603962927 -0.05529158386088309 -0.08501647420854741 -0.01029776776427566
  -0.1674076776184714 -0.9149915253021944 -0.1158267554125471 0.001224283655607792 -0.08569650516749336 -0.01027048058032459 0.253820554131748 -0.05662341364043569
  0.254082091835565 -0.05528643231523384 -0.08568811969059661 -0.01026922959791412 -0.1137318687137964 0.0196005569834243 -0.3092158340619074 -0.8754183323093208
  -0.08502274188561225 -0.01029857777841568 0.2538389657303431 -0.05662702913076564 -0.3092660759346613 -0.8755701451285175 -0.1146014407595362 0.01817245275740327
4905000000 -0.1163868364738837 -0.0017487572852706 -0.1689767657504354 -0.914653449775535 0.2540661794817231 -0.05573887727536962 -0.08516287142259782 -0.0101223030788194
  -0.1689767235452009 -0.9146532557996588 -0.1158628884826369 0.001404653341729481 -0.08584356546014478 -0.01009287051734102 0.2537763638796384 -0.05707255350241985
  0.2540406141803241 -0.05573368118055809 -0.08583516518413779 -0.01009163664232956 -0.1137041596420956 0.01978721473070453 -0.3108513684058578 -0.8747899232201326
  -0.08516915013004976 -0.01012310031436647 0.2537947729596817 -0.05707620186429287 -0.3109018940316659 -0.8749416334555628 -0.114576807681813 0.01835980383401737
4910000000 -0.1164280054128072 -0.001573165338035836 -0.1705451091035591 -0.9143126138790725 0.2540234745320059 -0.0561860622333015 -0.08530892162321525 -0.009946224558360663
  -0.1705450665233545 -0.914312419806374 -0.1158986066654794 0.00158512778444542 -0.08599027163155842 -0.009914642929303616 0.2537309426803825 -0.05752158095556524
  0.2539979126118147 -0.05618082159840576 -0.08598185659024085 -0.009913426222928861 -0.1136759427523295 0.01997375904368096 -0.3124856341642744 -0.8741585921624045
  -0.08531521133655937 -0.009947008969508231 0.2537493491518856 -0.05752526218327577 -0.3125364433363867 -0.8743101993056484 -0.1145516651106138 0.01854705358114048
4915000000 -0.1164687779385641 -0.001397462060284473 -0.1721127459023011 -0.9139692130591754 0.2539795459123544 -0.05663313529223091 -0.08545462263199963 -0.009769532862542949
  -0.1721127029466681 -0.9139690188903434 -0.1159339098075554 0.001765706146649844 -0.08613662147934587 -0.009735798497037236 0.2536842909055186 -0.05797049253910776
  0.2539539874952175 -0.05662785012667343 -0.0861281917067344 -0.00973459902047317 -0.1136472185446857 0.02016018860743784 -0.3141186267980301 -0.8735243416785716
  -0.08546092332657949 -0.009770304403527944 0.2537026946785114 -0.05797420662669984 -0.3141697193088872 -0.8736758452216344 -0.1145260134933487 0.01873420069857605
4920000000 -0.1165091538983797 -0.001221648219214647 -0.1736796725441099 -0.913623248886304 0.2539343939967366 -0.05708009301048669 -0.08559997227182232 -0.00959222865839547
  -0.1736796292125904 -0.9136230546220298 -0.1159687977557732 0.001946387591452701 -0.08628261280243626 -0.009556337908892669 0.2536364089353763 -0.0584192847930871
  0.2539088392044676 -0.05707476332403311 -0.08627416833276635 -0.009555155723247891 -0.1136179875217263 0.02034650210920454 -0.3157503417728192 -0.8728871743149252
  -0.08560628392282027 -0.0095929872834991 0.2536548099199077 -0.0584230317343563 -0.3158017174140486 -0.873038573750235 -0.1144998532796499 0.01892124388806617
4925000000 -0.1165491331396284 -0.001045724581720348 -0.1752458854301377 -0.9132747229333676 0.2538880191678804 -0.05752693194718927 -0.08574496836684987 -0.009414312620329584
  -0.1752458417222761 -0.913274528574342 -0.1160032703574651 0.002127171282168921 -0.08642824340110435 -0.009376261860742972 0.2535872971590807 -0.05886795425836579
  0.2538624681222593 -0.05752155774994982 -0.0864197842688286 -0.009375097027060551 -0.1135882501883791 0.0205326982383517 -0.3173807745591489 -0.8722470926216007
  -0.08575129094928717 -0.009415058283877903 0.2536056952652206 -0.05887173404685755 -0.3174324331215658 -0.8723983874420125 -0.114473184921364 0.01910818185328754
4930000000 -0.116588715509828 -0.0008696919144040178 -0.1768113809652279 -0.9129236367757139 0.2538404218172788 -0.05797364866226701 -0.08588960874256743 -0.009235785430137443
  -0.176811336880569 -0.9129234423226318 -0.1160373274603819 0.002308056382307112 -0.08657351107699135 -0.009195571055980791 0.2535369559745583 -0.05931649747664414
  0.253814874640051 -0.05796822996469602 -0.08656503731678031 -0.009194423635237099 -0.1135580070519281 0.020718775686388 -0.3190099206323211 -0.871604099152575
  -0.08589594223130399 -0.009236518086501609 0.2535553511123961 -0.05932031010565387 -0.3190618619059308 -0.8717552888513673 -0.1144460088725436 0.01929501329984638
4935000000 -0.116627900856634 -0.0006935509835881191 -0.178376155557906 -0.9125699919911221 0.2537916023451959 -0.0584202397164754 -0.08603389122580243 -0.009056647776986958
  -0.1783761110959957 -0.9125697974446777 -0.116070968912689 0.002489042055558883 -0.08671841363313233 -0.009014266205515977 0.2534853857885419 -0.05976491099047715
  0.2537660591580713 -0.05841477652937058 -0.08670992527987414 -0.009013136258620113 -0.1135272586220063 0.02090473314695643 -0.3206377754724204 -0.8709581964656538
  -0.08604023559553677 -0.009057367380584661 0.2535037778681889 -0.05976875645305142 -0.3206899992464223 -0.8711092805365325 -0.1144183255894397 0.01948173693527416
4940000000 -0.1166666890278351 -0.0005173025553275112 -0.1799402056203687 -0.9122137901597934 0.2537415611606711 -0.05886670167141064 -0.08617781364474696 -0.008876900357421471
  -0.1799401607807541 -0.9122135955206838 -0.1161041945629617 0.00267012746578777 -0.08686294887397837 -0.008832348027772175 0.2534325870165748 -0.06021319134329087
  0.2537160220853232 -0.05886119400591322 -0.08685444596277779 -0.008831235615565165 -0.113496005410586 0.02109056931583086 -0.3222643345643045 -0.8703093871224687
  -0.08618416887001679 -0.008877606862716316 0.2534509759481636 -0.06021706963222628 -0.3223168406270862 -0.8704603650595678 -0.1143901355304948 0.01966835146902299
4945000000 -0.116705079871347 -0.0003409473954216621 -0.1815035275684707 -0.9118550328643427 0.253690298681525 -0.05931303108952802 -0.08632137382898249 -0.008696543875354337
  -0.1815034823507004 -0.9118548381332641 -0.1161370042601813 0.002851311777018001 -0.08700711460542077 -0.008649817248684541 0.2533785600830165 -0.06066133507940034
  0.2536647638395897 -0.05930747895712322 -0.08699859717160034 -0.008648722431938512 -0.1134642479319699 0.02127628289091208 -0.3238895933975863 -0.8696576736884658
  -0.08632773988416444 -0.008697237236857103 0.2533969457767028 -0.06066524618724398 -0.3239423815367305 -0.8698085449863471 -0.1143614391563337 0.01985485561246062
4950000000 -0.1167430732352079 -0.0001644862694266635 -0.1830661178217177 -0.9114937216897863 0.2536378153343647 -0.0597592245341587 -0.08646456960950212 -0.008515579042067539
  -0.1830660722253413 -0.911493526867439 -0.1161693978537302 0.003032594153423682 -0.08715090863481666 -0.008466674601696101 0.2533233054210477 -0.06110933874402503
  0.2536122848474398 -0.05975362794667523 -0.08714237671391621 -0.008465597441114038 -0.1134319867027841 0.02146187257222482 -0.3255135474666242 -0.8690030587329033
  -0.08647094646881211 -0.008516259214336673 0.2533416877870098 -0.0611132826630745 -0.3255666174689064 -0.8691538228865573 -0.1143322369297569 0.02004124807886591
4955000000 -0.1167806689675733 1.208005733221717e-05 -0.1846279728032518 -0.9111298582235403 0.2535841115545882 -0.06020527856952608 -0.0866073988187349 -0.00833400657620751
  -0.1846279268278206 -0.9111296633106245 -0.116201375193389 0.003213973759317347 -0.08729432877101215 -0.008282920827755074 0.2532668234726748 -0.0615571988833061
  0.2535585855442331 -0.0601996375391366 -0.08728578239878798 -0.008281861383969521 -0.1133992222419688 0.02164733706191327 -0.3271361922705063 -0.8683455448288407
  -0.08661378645622787 -0.008334673513849339 0.253285202421115 -0.06156117560560974 -0.3271895439218973 -0.868496201333688 -0.1143025293157337 0.0202275275834242
4960000000 -0.1168178669167112 0.0001887508197484067 -0.186189088939844 -0.9107634440554045 0.2535291877863912 -0.06065118976076401 -0.08674985929056837 -0.008151827203782719
  -0.186189042584908 -0.9107632490526217 -0.1162329361293313 0.003395449759138936 -0.08743737282436712 -0.008098556675312004 0.2532091146887355 -0.06200491204432453
  0.2535036663741241 -0.06064550429998383 -0.0874288120367927 -0.008097515008884285 -0.1133659550707701 0.02183267506423793 -0.3287575233130416 -0.8676851345531321
  -0.0867562576801386 -0.008152480861452012 0.25322749012988 -0.06200892156168095 -0.3288111563987053 -0.8678356829050248 -0.1142723167813929 0.02041369284322217
4965000000 -0.1168546669309974 0.0003655252529215914 -0.187749462661879 -0.9103944807775599 0.2534730444827701 -0.0610969546739325 -0.08689194886037263 -0.007969041658159492
  -0.1877494159269932 -0.9103942856856141 -0.1162640805121205 0.003577021317444585 -0.0875800386067787 -0.007913582900316131 0.2531501795289035 -0.06245247477511733
  0.25344752779007 -0.0610912247956209 -0.08757146344004414 -0.007912559071736179 -0.1133321857127324 0.02201788528557174 -0.3303775361027392 -0.8670218304864248
  -0.08689835797575395 -0.007969681990560718 0.2531685513730038 -0.06245651707907552 -0.3304314504070382 -0.867172270181645 -0.1142415997960177 0.02059974257724347
4970000000 -0.1168910688589103 0.0005424025921452474 -0.1893090904033499 -0.9100229699845557 0.2534156821055304 -0.06154256987603624 -0.08703366536502302 -0.007785650680059733
  -0.1893090432880684 -0.9100227748041519 -0.116294808192706 0.003758687598895237 -0.08772232393170679 -0.007728000266212216 0.2530900184616928 -0.06289988362469401
  0.2533901702538333 -0.06153679559339537 -0.08771373442221835 -0.007726994335897027 -0.1132979146936894 0.02220296643439601 -0.3319962261528018 -0.8663556352131431
  -0.08704008517978895 -0.007786277641946509 0.253108386619026 -0.06290395870655419 -0.332050421459296 -0.8665059657484053 -0.1142103788310372 0.02078567550636352
4975000000 -0.116927072549027 0.000719382072894085 -0.1908679686018415 -0.9096489132733043 0.2533571011252885 -0.06198803193504147 -0.08717500664292445 -0.007601655017556841
  -0.1908679211057197 -0.9096487180051479 -0.1163251190224193 0.003940447768245218 -0.08786422661419757 -0.007541809543937589 0.2530286319644645 -0.06334713514305586
  0.2533315942359886 -0.06198221326161633 -0.0878556227985781 -0.007540821572231245 -0.1132631425417567 0.02238791722129689 -0.3336135889811114 -0.8656865513214906
  -0.08718143713048747 -0.007602268563733505 0.2530469963453338 -0.0633512429938685 -0.3336680650725568 -0.8658367721939436 -0.1141786543600193 0.02097149035334474
4980000000 -0.1169626778500184 0.0008964629308116811 -0.1924260936985234 -0.9092723122430714 0.2532973020214799 -0.06243333741989288 -0.08731597053403387 -0.007417055426072523
  -0.192426045821117 -0.9092721168878704 -0.1163550128529708 0.004122300990331201 -0.0880057444709061 -0.007355011511918468 0.2529660205234301 -0.06379422588121246
  0.2532718002159273 -0.06242747436957247 -0.08799712638599504 -0.007354041559090749 -0.1132278697873235 0.02257273635896154 -0.335229620110214 -0.8650145814034377
  -0.08732241166764622 -0.007417655511394033 0.2529843810381653 -0.06379836649177834 -0.3352843767685673 -0.8651646921106626 -0.1141464268586641 0.02115718584283189
4985000000 -0.1169978846106447 0.001073644401697899 -0.1939834621381375 -0.9088931684954664 0.2532362852823624 -0.06287848290053227 -0.08745655487988356 -0.007231852668373231
  -0.1939834138790056 -0.9088929730539288 -0.1163844895364456 0.004304246430060639 -0.08814687532012461 -0.00716760695606631 0.2529021846336568 -0.06424115239119776
  0.2532107886818631 -0.06287257548754809 -0.08813824300297686 -0.00716665508231263 -0.113192096963045 0.02275742256217403 -0.336844315067308 -0.8643397280547186
  -0.08746300663263763 -0.007232439247745991 0.2529205411926155 -0.06424532575206959 -0.3368993520737241 -0.8644897280947321 -0.1141136968047971 0.02134276070134671
4990000000 -0.1170326926797518 0.001250925721496002 -0.1955400703689868 -0.9085114836344366 0.2531740514050222 -0.06332346494791552 -0.08759675752360521 -0.007046047514566878
  -0.1955400217276873 -0.9085112881072738 -0.1164135489253009 0.004486283252400064 -0.08828761698180254 -0.006979596669775065 0.2528371247990732 -0.06468791122609092
  0.2531485601308373 -0.0633175131868416 -0.08827897046968899 -0.006978662935215151 -0.1131558246038342 0.02294197454781134 -0.3384576693842279 -0.8636619938748247
  -0.08760321986843318 -0.0070466205429491 0.2528554773126413 -0.06469211732757056 -0.3385129865190651 -0.8638118827460775 -0.1140804646783611 0.02152821365728334
4995000000 -0.1170671019062663 0.001428306126280245 -0.1970959148429229 -0.9081272592662588 0.2531106008953797 -0.06376828013403053 -0.08773657630995302 -0.006859640742098785
  -0.1970958658190179 -0.9081270636541824 -0.1164421908723628 0.004668410622364001 -0.0884279672775722 -0.006790981453916911 0.252770841532474 -0.06513449894003026
  0.2530851150687234 -0.06376228403978393 -0.08841930660797974 -0.006790065918594223 -0.113119053246855 0.02312639103483993 -0.3400696785974378 -0.8629813814669949
  -0.08774304921962682 -0.006860200174500935 0.2527891899110654 -0.06513873777217169 -0.3401252756402541 -0.8631311586683753 -0.1140467309614107 0.02171354344090299
5000000000 -0.1171011121391922 0.001605784852243116 -0.1986509920153401 -0.9077404969995297 0.2530459342681934 -0.06421292503191472 -0.08787600908532682 -0.006672633135747999
  -0.1986509426083905 -0.9077403013032529 -0.116470415230822 0.004850627705003263 -0.08856792403077501 -0.006601762116838928 0.2527033353555247 -0.06558091208823418
  0.2530204540102335 -0.06420688461975521 -0.0885592492414058 -0.00660086484071986 -0.1130817834315132 0.02331067074431124 -0.3416803382480124 -0.8622978934382134
  -0.08788249253245836 -0.006673178927233806 0.2527216795095832 -0.06558518364084152 -0.3417362149775687 -0.862447558469046 -0.1140124961381054 0.02189874878432936
5005000000 -0.1171347232276061 0.001783361135682453 -0.200205298345159 -0.9073511984451594 0.2529800520470665 -0.06465739621567353 -0.08801505369779505 -0.006485025487624405
  -0.2002052485547272 -0.9073510026653947 -0.1164982218542324 0.005032933665393414 -0.08870748506648231 -0.00641193947435924 0.2526346067987668 -0.06602714722701737
  0.2529545774789223 -0.06465131150120337 -0.08869879619525431 -0.006411060517332728 -0.1130440156994503 0.02349481239935787 -0.3432896438816251 -0.8616115323992025
  -0.08802154765483688 -0.006485557593310863 0.2526529466387662 -0.06603145148964581 -0.3433458000758848 -0.8617610847592501 -0.1139777606947019 0.02208382842154318
5010000000 -0.1171679350206543 0.001961034212988732 -0.2017588302948177 -0.9069593652163601 0.2529129547644506 -0.06510169026049784 -0.08815370799711893 -0.006296818597163753
  -0.201758780120468 -0.9069591693538257 -0.1165256105965065 0.005215327668623162 -0.08884664821152215 -0.006221514349763595 0.2525646564016227 -0.06647320091380923
  0.2528874860071936 -0.0650955612596624 -0.08883794529656852 -0.006220653771639603 -0.1130057505945345 0.02367881472518932 -0.3448975910485343 -0.8609223009644166
  -0.08816021243636378 -0.006297336972221927 0.2525829918380673 -0.06647753787576478 -0.3449540264846665 -0.8610717401538788 -0.113942525119549 0.02226878108837734
5015000000 -0.1172007473675487 0.002138803320632122 -0.2033115843302598 -0.9065649989286441 0.2528446429616528 -0.06554580374268298 -0.08829196983477558 -0.006108013271124371
  -0.2033115337715573 -0.9065648029840569 -0.1165525813119139 0.005397808879782668 -0.08898541129450231 -0.006030487573800866 0.2524934847124008 -0.06691906970717262
  0.2528191801363039 -0.06553963047176931 -0.08897669437417025 -0.006029645434310896 -0.1129669886628552 0.02386267644908853 -0.3465041753035736 -0.8602302017520346
  -0.08829848472835589 -0.006108517870780227 0.2525118156558259 -0.06692343935751217 -0.3465608897579521 -0.8603795272715511 -0.1139067899030802 0.0224536055225117
5020000000 -0.1172331601175627 0.002316667695149726 -0.2048635569209239 -0.9061681011998119 0.2527751171888396 -0.06598973323964623 -0.08842983706398046 -0.005918610323583428
  -0.2048635059774355 -0.9061679051738892 -0.116579133855078 0.005580376463952005 -0.08912377214583458 -0.005838859984680155 0.2524210922883003 -0.06736475016681986
  0.2527496604163693 -0.06598351571528373 -0.08911504125868762 -0.005838036343475116 -0.1129277304527137 0.02404639630040722 -0.3481093922061351 -0.8595352373839565
  -0.08843636238386991 -0.005919101103117851 0.2524394186492736 -0.06736915249435184 -0.3481663854543388 -0.859684448734609 -0.1138705555378081 0.0226383004634684
5025000000 -0.1172651731200287 0.00249462657313253 -0.2064147445397343 -0.905768673649943 0.2527043780050421 -0.06643347532994549 -0.08856730753971148 -0.005728610575932864
  -0.2064146932110274 -0.9057684775434058 -0.1166052680809729 0.005763029586189423 -0.08926172859775923 -0.005646632428065735 0.2523474796954165 -0.06781023885363448
  0.2526789274063696 -0.06642721356910562 -0.08925298378257468 -0.005645827344716193 -0.1128879765146172 0.02422997301056164 -0.3497132373201566 -0.8588374104857979
  -0.08857384325772423 -0.005729087490682306 0.2523658013845376 -0.06781467384691711 -0.3497705091369726 -0.8589865071691051 -0.1138338225183161 0.02282286465260587
5030000000 -0.1172967862243337 0.002672679191212427 -0.2079651436630856 -0.9053667179013931 0.252632425978162 -0.06687702659329678 -0.08870437911873273 -0.005538014856874889
  -0.2079650919487298 -0.9053665217149629 -0.1166309838449219 0.005945767411519509 -0.08939927848436978 -0.005453805757073988 0.2522726475087451 -0.06825553232968622
  0.252606981674154 -0.06687072061329392 -0.08939051978013972 -0.005453019291069118 -0.1128477274012715 0.0244134053130293 -0.3513157062141093 -0.8581367236868823
  -0.08871092520652341 -0.005538477862232219 0.2522909644366473 -0.06825999997703014 -0.351373256373532 -0.858285705204807 -0.1137965913412557 0.02300729683311464
5035000000 -0.1173279992799167 0.002850824786049259 -0.2095147507708354 -0.9049622355787826 0.2525592616849757 -0.06732038361059497 -0.08884104965961616 -0.005346824002418345
  -0.2095146986704011 -0.9049620393131814 -0.1166562810025943 0.006128589104921534 -0.08953641964163553 -0.005260380832268916 0.2521965963121879 -0.06870062715825158
  0.252533823796446 -0.06731403342908447 -0.08952764708756641 -0.005259613043015316 -0.1128069836675726 0.02459669194334353 -0.3529167944609858 -0.8574331796202352
  -0.08884760608868053 -0.005347273053833199 0.2522149083895379 -0.06870512744771808 -0.3529746227362168 -0.8575820454751822 -0.1137588625053366 0.02319159575001141
5040000000 -0.117358812136265 0.003029062594317562 -0.2110635623462911 -0.9045552283089888 0.2524848857111411 -0.06776354296393014 -0.08897731702276714 -0.005155038855874518
  -0.2110635098593485 -0.9045550319649416 -0.1166811594100031 0.006311493831317448 -0.08967314990742702 -0.005066358521657674 0.2521193266985568 -0.06914551990383204
  0.2524594543588486 -0.06775714859890952 -0.08966436354293984 -0.00506560946847935 -0.1127657458706019 0.02477983163909037 -0.3545164976382838 -0.8567267809225827
  -0.08898388376444157 -0.005155473908853632 0.2521376338360559 -0.06915005282323324 -0.3545746038017361 -0.8568755306174007 -0.1137206365113236 0.02337576015013418
5045000000 -0.117389224642912 0.003207391852693761 -0.2126115748761992 -0.9041456977211427 0.2524092986512005 -0.06820650123660738 -0.08911317907044525 -0.004962660267852799
  -0.212611522002322 -0.9041455012993731 -0.1167056189235034 0.006494480755560409 -0.089809467121541 -0.004871739700686753 0.2520408392695802 -0.06959020713217201
  0.2523838739558499 -0.06820006270641593 -0.08980066698627 -0.004871009442824011 -0.112724014569617 0.02496282313990377 -0.3561148113279953 -0.8560175302343441
  -0.08911975609590748 -0.004963081277961125 0.2520591413779645 -0.06959477266907127 -0.3561731951512915 -0.8561661632723223 -0.1136819138620287 0.02355978878213707
5050000000 -0.1174192366494331 0.003385811797842776 -0.2141587848507348 -0.9037336454466147 0.252332501108588 -0.06864925501316543 -0.08924863366678944 -0.004769689096256456
  -0.2141587315894968 -0.9037334489478507 -0.1167296593997895 0.006677549042422554 -0.08994536912572257 -0.00467652525223752 0.2519611346359058 -0.07003468541027826
  0.2523070831908273 -0.06864277233648444 -0.08993655525951585 -0.004675813848846341 -0.1126817903260462 0.02514566518746162 -0.3577117311165933 -0.8553054301996238
  -0.08925522094705822 -0.004770096019116755 0.2519794316259478 -0.07003928355199109 -0.3577703923705675 -0.8554539460844992 -0.1136426950623065 0.02374368039648493
5055000000 -0.1174488480054438 0.00356432166640498 -0.2157051887634899 -0.9033190731190139 0.252254493695633 -0.06909180087939605 -0.08938367867784065 -0.004576126206278115
  -0.215705135114466 -0.903318876543984 -0.1167532806958936 0.006860697856583268 -0.09008085376369014 -0.004480716066622264 0.2518802134171075 -0.07047895130643811
  0.2522290826760541 -0.06908527407524773 -0.09007202620661044 -0.004480023576773283 -0.1126390737034814 0.0253283565254811 -0.3593072525950177 -0.8545904834662096
  -0.08939027618377617 -0.004576518997572512 0.2518985051996155 -0.07048358204003058 -0.359366191049715 -0.8547388817021637 -0.1136029806190476 0.02392743374544802
5060000000 -0.1174780585605964 0.003742920694982726 -0.2172507831114598 -0.9029019823741766 0.2521752770335663 -0.0695341354223625 -0.0895183119715648 -0.00438197247039552
  -0.2172507290742266 -0.9029017857236099 -0.1167764826691835 0.007043926362617118 -0.09021591888116094 -0.004284313041579195 0.2517980762416892 -0.07092300139024005
  0.2521498730327025 -0.06952756451011044 -0.09020707767348309 -0.004283639524257238 -0.1125958652676711 0.02551089589971463 -0.3609013713586609 -0.8538726926855686
  -0.08952491967386846 -0.004382351085865641 0.2518163627275081 -0.07092766470252945 -0.3609605867833408 -0.8540209727772282 -0.1135627710411737 0.02411104758309707
5065000000 -0.1175068681645779 0.00392160812012749 -0.2187955643950367 -0.9024823748501604 0.252094851752524 -0.06997625523041789 -0.08965253141787646 -0.004187228768367277
  -0.218795509969172 -0.902482178124787 -0.1167992651773609 0.007227233724982103 -0.09035056232587302 -0.004087317082268221 0.2517147237470895 -0.07136683223259062
  0.2520694548908508 -0.06996964022976732 -0.09034170750808594 -0.004086662596371731 -0.1125521655865141 0.02569328205794588 -0.3624940830073605 -0.8531520605128381
  -0.08965914928709133 -0.004187593163814471 0.2517330048471026 -0.07137152811014617 -0.3625535751704955 -0.8533002219652764 -0.1135220668396304 0.02429452066529746
5070000000 -0.1175352766671071 0.004100383178326217 -0.2203395291179942 -0.9020602521872367 0.2520132184915545 -0.07041815689322699 -0.08978633488866171 -0.003991895987227687
  -0.2203394743030773 -0.9020600553877898 -0.11682162807846 0.007410619108007432 -0.09048478194761178 -0.003889729101266387 0.2516301565796875 -0.07181044040573489
  0.2519878288894877 -0.07041149782422404 -0.09047591356041669 -0.003889093705606184 -0.1125079752300523 0.02587551374998442 -0.3640853831453765 -0.8524285896068252
  -0.08979296289517283 -0.003992246118514044 0.2516484322048156 -0.07181516883487722 -0.3641451518146532 -0.8525766319255644 -0.1134808685273845 0.02447785174970426
5075000000 -0.1175632839179325 0.004279245105988213 -0.2218826737874789 -0.9016356160278842 0.2519303778986215 -0.07085983700178261 -0.08991972025780215 -0.003795975021283048
  -0.2218826185830904 -0.9016354191550973 -0.1168435712308453 0.007594081675881742 -0.09061857559823155 -0.003691550018563186 0.2515443753948065 -0.07225382248327539
  0.2519049956765164 -0.07085313388481444 -0.09060969368254296 -0.003690933771862071 -0.1124632947704653 0.02605758972766285 -0.3656752673813885 -0.8517022826299965
  -0.08992635837183578 -0.003796310844331529 0.2515626454560098 -0.07225858345007646 -0.36573531232371 -0.8518502053210086 -0.113439176619415 0.02466103959575685
5080000000 -0.1175908897668295 0.004458193139431603 -0.2234249949139968 -0.9012084680167809 0.2518463306306105 -0.07130129214842673 -0.09005268540119687 -0.003599466772105892
  -0.2234249393197175 -0.901208271071388 -0.116865094493211 0.007777620592640812 -0.09075194113168161 -0.003492780761556234 0.2514573808567195 -0.07269697504019139
  0.2518209559087607 -0.07129454500422137 -0.090743045728627 -0.003492183722448237 -0.112418124782063 0.02623950874483071 -0.3672637313284743 -0.8509731422484829
  -0.09005933359282188 -0.003599788242901497 0.2514756452649974 -0.07270176853047483 -0.3673240523099592 -0.851120944818185 -0.113396991632711 0.02484408296467353
5085000000 -0.1176180940635992 0.004637226514870011 -0.2249664890114032 -0.9007788098007966 0.251761077353333 -0.07174251892686981 -0.09018522819678668 -0.003402372148531491
  -0.2249664330268162 -0.9007786127835341 -0.116886197724579 0.007961235022155616 -0.09088487640402999 -0.003293422265045905 0.2513691736386537 -0.07313989465285874
  0.2517357102519702 -0.07173572777649607 -0.09087596755494884 -0.003292844492075436 -0.1123724658412796 0.02642126955735141 -0.3688507706041008 -0.8502411711320641
  -0.09019188643591357 -0.003402679223120844 0.2513874323050463 -0.07314472065219997 -0.3689113673900857 -0.8503888530873259 -0.1133543140862644 0.02502698061944616
5090000000 -0.1176448966580657 0.004816344468399117 -0.2265071525968913 -0.9003466430289869 0.2516746187415313 -0.07218351393221015 -0.09031734652457729 -0.003204692066652182
  -0.2265070962215804 -0.9003464459405935 -0.1169068807842979 0.00814492412812013 -0.09101737927348735 -0.003093475471230918 0.2512797544227957 -0.07358257789906887
  0.2516492593808248 -0.07217667879707781 -0.09100845701993121 -0.003092917022852245 -0.1123263185266674 0.02660287092309719 -0.3704363808301115 -0.8495063719541714
  -0.09032401478095896 -0.003204984701144868 0.2512980072583831 -0.07358743639279496 -0.3704972531851502 -0.8496539328023113 -0.1133111445010653 0.02520973132483466
5095000000 -0.1176712974000739 0.004995546235983082 -0.2280469821909789 -0.8999119693525884 0.251586955478885 -0.07262427376095396 -0.09044903826666201 -0.003006427449812738
  -0.2280469254245305 -0.8999117721938013 -0.116927143532042 0.008328687074039266 -0.09114944760043117 -0.002892941329703474 0.2511891239002949 -0.07402502135804866
  0.251561603978939 -0.07261739466281222 -0.09114051198416347 -0.002892402264279591 -0.1122796834188909 0.02678431160194482 -0.3720205576327094 -0.8487687473918802
  -0.09045571650989362 -0.003006705600381581 0.2512073708161994 -0.07402991233123833 -0.3720817053205756 -0.8489161866406707 -0.1132674834000974 0.02539233384736144
5100000000 -0.1176972961394886 0.005174831053441405 -0.2295859743175034 -0.899474790425006 0.2514980882580141 -0.07306479501103387 -0.09058030130724531 -0.002807579228605809
  -0.2295859171595034 -0.8994745931965666 -0.11694698582781 0.008512523023216889 -0.09128107924742972 -0.002691820797444148 0.2510972827712704 -0.07446722161048033
  0.2514727447388682 -0.07305787197197358 -0.09127213031042622 -0.002691301173246428 -0.1122325611007199 0.02696559035577094 -0.3736032966424483 -0.8480283001259092
  -0.09058698950676468 -0.002807842851487352 0.251115523678656 -0.07447214504796464 -0.3736647194261348 -0.8481756172835715 -0.1132233313083322 0.02557478695530691
5105000000 -0.1177228927261923 0.005354198156434775 -0.2311241255036011 -0.8990351079018125 0.2514080177804843 -0.07350507428183149 -0.09071113353266566 -0.002608148340866612
  -0.2311240679536372 -0.8990349106044622 -0.1169664075319246 0.008696431138743233 -0.09141227207926729 -0.002490114838816713 0.2510042317448136 -0.07490917523852079
  0.251382682362113 -0.07349810732428309 -0.09140330986371467 -0.00248961471402391 -0.1121849521570242 0.02714670594844797 -0.3751845934942187 -0.8472850328406103
  -0.09071783165775252 -0.002608397392361704 0.2510224665548871 -0.07491413112488272 -0.3752462911359379 -0.8474322274158205 -0.1131786887527244 0.02575708941870273
5110000000 -0.1177480870100834 0.005533646780451962 -0.2326614322797018 -0.8985929234407366 0.2513167447568133 -0.0739451081741952 -0.09084153283141941 -0.002408135731667795
  -0.232661374337364 -0.8985927260752182 -0.1169854085050309 0.008880410583482904 -0.09154302396296635 -0.002287824425563497 0.2509099715389945 -0.07535087882582331
  0.2512914175591236 -0.073938097320929 -0.09153404851126301 -0.002287343858261427 -0.1121368571747681 0.02732765714583921 -0.3767644438272304 -0.8465389482239711
  -0.09084824085119726 -0.002408370168142117 0.2509282001630056 -0.07535586714539647 -0.3768264160884175 -0.8466860197258591 -0.1131335562622077 0.02593924000932736
5115000000 -0.1177728788410753 0.005713176160796225 -0.2341978911795183 -0.8981482387016607 0.2512242699064736 -0.07438489329046051 -0.09097149709418294 -0.002207542353314758
  -0.2341978328443967 -0.8981480412687176 -0.1170039886080967 0.009064460520062911 -0.09167333276781346 -0.00208495053679985 0.2508145028808645 -0.07579232895755446
  0.2511989510493052 -0.07437783856458702 -0.0916643441225692 -0.002084489584979953 -0.1120882767430026 0.02750844271579433 -0.3783428432850061 -0.8457900489676059
  -0.09097821497761775 -0.002207762131199692 0.2508327252301077 -0.0757973496944262 -0.3784050899263178 -0.8459369969057544 -0.1130879343676888 0.02612123750070021
5120000000 -0.1177972680690947 0.005892785532571366 -0.2357334987400299 -0.8977010553466112 0.251130593957899 -0.07482442623447151 -0.09110102421383696 -0.002006369165340565
  -0.235733440011717 -0.8977008578469905 -0.1170221477024113 0.009248580110859904 -0.09180319636538264 -0.001881494159009073 0.2507178265064627 -0.07623352222041672
  0.2511052835610231 -0.07481732765944121 -0.09179419456941727 -0.001881052880568631 -0.1120392114528618 0.02768906142814521 -0.3799197875153623 -0.845038337766755
  -0.09110775192973788 -0.002006574241132725 0.250736042492277 -0.07623857535842569 -0.3799823082966786 -0.8451851616512028 -0.1130418236020437 0.02630308066807605
5125000000 -0.1178212545440806 0.006072474130668175 -0.2372682515014748 -0.8972513750397532 0.2510357176484884 -0.07526370361160048 -0.09123011208548913 -0.001804617134499883
  -0.2372681923795633 -0.8972511774742007 -0.1170398856495851 0.009432768517988235 -0.09193261262955908 -0.001677456286037212 0.25061994316082 -0.07667445520266855
  0.251010415831607 -0.07525656121120319 -0.0919235977259043 -0.001677034738777529 -0.1119896618975567 0.0278695120547012 -0.3814952721704006 -0.8442838173202791
  -0.09123684960250801 -0.001804807464762841 0.2506381526945894 -0.07667954072540556 -0.3815580668508258 -0.8444305166615206 -0.1129952245001129 0.02648476828843989
5130000000 -0.117844838115983 0.006252241189751121 -0.23880214600734 -0.896799199447384 0.2509396417246109 -0.07570272202876768 -0.09135875860649709 -0.001602287234764767
  -0.2388020864914242 -0.8967990018166472 -0.1170572023115496 0.009617024903287747 -0.09206157943656494 -0.001472837919087326 0.2505208535979636 -0.07711512449414343
  0.2509143486073555 -0.0756955358271329 -0.09205255146846167 -0.001472436160713845 -0.1119396286723682 0.0280497933692442 -0.3830692929064928 -0.8435264903306571
  -0.09136550589312921 -0.001602462776128904 0.250539056591118 -0.07712024238495199 -0.3831323612443557 -0.8436730646396416 -0.1129481375986971 0.02666629914050141
5135000000 -0.1178680186347621 0.006432085944243981 -0.2403351788043432 -0.8963445302379247 0.2508423669416112 -0.07614147809446314 -0.09148696167649126 -0.001399380447318538
  -0.2403351188940197 -0.896344332542754 -0.1170740975505568 0.009801348428311046 -0.09219009466498093 -0.00126764006671471 0.2504205585809204 -0.07755552668627151
  0.250817082643542 -0.07613424811605936 -0.09218105367588122 -0.001267258154835599 -0.1118891123746433 0.02822990414752455 -0.384641845384266 -0.8427663595039804
  -0.09149371870107648 -0.00139954115648193 0.2504387549449369 -0.0775606769282471 -0.3847051871371205 -0.8429128082921165 -0.1129005634365521 0.02684767200468894
5140000000 -0.1178907959503875 0.006612007628316667 -0.2418673464424298 -0.8958873690819183 0.2507438940638126 -0.0765799684187667 -0.09161471919739952 -0.001195897760551005
  -0.2418672861372947 -0.8958871713230644 -0.1170905712291792 0.009985738254311644 -0.09231815619577292 -0.001061863744820476 0.2503190588817237 -0.07799565837209928
  0.2507186187044179 -0.07657269468840198 -0.09230910222933866 -0.001061501736946695 -0.111838113603789 0.02840984316725627 -0.3862129252685922 -0.8420034275499525
  -0.09162148592811974 -0.001196043594279622 0.2503372485281259 -0.07800084094809015 -0.3862765401932203 -0.8421497503291057 -0.1128525025543855 0.02702888566314494
5145000000 -0.1179131699128372 0.006792005475871077 -0.2433986454747539 -0.8954277176520197 0.2506442238645235 -0.07701818961336802 -0.09174202907346855 -0.0009918401700524924
  -0.2433985847744066 -0.8954275198302336 -0.1171066232103101 0.01017019354223121 -0.09244576191231384 -0.0008555099766468816 0.2502163552814158 -0.07843551614631109
  0.2506189575632184 -0.07701087215618929 -0.09243669501241619 -0.0008551679301910425 -0.1117866329612662 0.02858960920811232 -0.3877825282285767 -0.8412376971818819
  -0.09174880547835033 -0.0009919710851809275 0.2502345381217757 -0.07844073103891792 -0.3878464160809844 -0.8413838934643759 -0.1128039554948513 0.02720993889971946
5150000000 -0.1179351403720975 0.006972078720527589 -0.2449290724576724 -0.8949655776229891 0.2505433571260409 -0.07745613829158862 -0.09186888921128766 -0.000787208678608926
  -0.2449290113617128 -0.8949653797390251 -0.1171222533571636 0.01035471345268755 -0.09257290970040916 -0.0006485797927713536 0.2501124485700535 -0.07887509660524918
  0.2505181000021669 -0.07744877713308201 -0.09256382991112964 -0.0006482577650467503 -0.1117346710505859 0.02876920105172014 -0.3893506499375392 -0.8404691711166813
  -0.09187567525820164 -0.0007873246320407371 0.2501306245159914 -0.07888034379682488 -0.3894148104729638 -0.8406152404152994 -0.1127549228025476 0.02739083049996533
5155000000 -0.1179567071781617 0.00715222659561099 -0.2464586239507313 -0.8945009506716882 0.2504412946396556 -0.07789381106840265 -0.09199529751981195 -0.0005820042961952904
  -0.2464585624587597 -0.8945007527263015 -0.1171374615332742 0.0105392971459619 -0.09269959744832185 -0.0004410742311004617 0.2500073395467117 -0.07931439634693518
  0.2504160468124796 -0.07788640623439266 -0.09269050481395014 -0.0004407722793207616 -0.1116822284773023 0.02894861748165691 -0.3909172860730059 -0.8396978520748639
  -0.09200209317647261 -0.00058210524490402 0.2500255085098971 -0.07931967581958527 -0.3909817190459127 -0.8398437939028505 -0.11270540502401 0.02757155925113227
5160000000 -0.1179778701810306 0.007332448334136783 -0.2479872965166524 -0.8940338384770737 0.2503380372056569 -0.07833120456045763 -0.09212125191038625 -0.0003762280399708889
  -0.2479872346282714 -0.894033640471019 -0.117152247602498 0.01072394378198675 -0.09282582304679318 -0.0002329943368648132 0.2499010290194889 -0.07975341197108966
  0.2503127987943693 -0.07832375607710693 -0.09281671761182907 -0.000232712518142986 -0.1116293058490099 0.02912785728344508 -0.3924824323166947 -0.8389237427805416
  -0.09212805714435227 -0.0003763139410000823 0.2499191909116411 -0.07975872370667256 -0.3925471374807784 -0.839069556651601 -0.1126554027077102 0.02775212394216157
5165000000 -0.1179986292307118 0.007512743168797197 -0.2495150867213244 -0.8935642427201892 0.2502335856333359 -0.07876831538609441 -0.09224675029676635 -0.0001698809342731197
  -0.2495150244361369 -0.8935640446542253 -0.117166611429013 0.0109086525203332 -0.09295158438907032 -2.434116261287305e-05 0.2497935178055093 -0.08019214007915487
  0.2502083567570512 -0.0787608232799052 -0.09294246619822168 -2.407953396038856e-05 -0.1115759037753355 0.02930691924454749 -0.3940460843545022 -0.838146845961418
  -0.09225356507544093 -0.0001699517447369654 0.2498116725383986 -0.08019748405928222 -0.3941110614626868 -0.8382925313897157 -0.1126049164040503 0.0279325233636804
5170000000 -0.1180189841772199 0.007693110331947469 -0.2510419911337892 -0.8930921650841629 0.2501279407409919 -0.07920514016537124 -0.09237179059514361 3.703598938774614e-05
  -0.2510419284514013 -0.893091966959047 -0.1171805528773195 0.01109342252019883 -0.09307687937092861 0.0001848842317954868 0.2496848067309304 -0.08063057727431484
  0.2501027215187467 -0.07919760446318337 -0.09306774846911173 0.0001851256134683206 -0.1115220228679358 0.02948580215436265 -0.3956082378764899 -0.8373671643487903
  -0.09237861488577459 3.698031230372234e-05 0.2497029542163777 -0.08063595348035063 -0.3956734866809329 -0.8375127208489546 -0.1125539466653601 0.02811275630799638
5175000000 -0.1180389348705755 0.00787354905559178 -0.2525680063262334 -0.892617607254196 0.2500211033559352 -0.07964167552008264 -0.09249637072416739 0.0002445216923351317
  -0.2525679432462505 -0.8926174090706884 -0.1171940718122404 0.01127825294039494 -0.09320170589069462 0.0003946807791938803 0.2495748966309442 -0.0810687201615171
  0.2499958939066879 -0.07963409624907355 -0.09319256232303579 0.0003949018570802882 -0.1114676637404912 0.02966450480422025 -0.3971688885768729 -0.8365847006775429
  -0.09250320449384732 0.0002444811913736037 0.2495930367808221 -0.08107412857457857 -0.3972344088289636 -0.8367301277646645 -0.1125024940458931 0.0282928215690917
5180000000 -0.1180584811608069 0.008054058571369409 -0.2540931288739731 -0.8921405709175623 0.2499130743144921 -0.08007791807378123 -0.09262048860496865 0.0004525751287317091
  -0.2540930653960041 -0.8921403726764244 -0.1172071680989229 0.01146314293933429 -0.09332606184927462 0.0006050474051161677 0.2494637883497829 -0.0815065653474934
  0.2498878747571218 -0.08007029526146711 -0.09331690566110598 0.000605248122512638 -0.1114128270087017 0.02984302598737666 -0.398728032154007 -0.8357994576861452
  -0.09262733182063491 0.0004525498465630238 0.2494819210760169 -0.08151200594845093 -0.3987938236043662 -0.8359447548757789 -0.1124505591018222 0.02847271794261822
5185000000 -0.1180776228979493 0.008234638110540751 -0.2556173553554451 -0.8916610577636012 0.2498038544620099 -0.08051386445180073 -0.09274414216118197 0.0006611952455852599
  -0.255617291479098 -0.8916608594655951 -0.1172198416028389 0.01164809167501854 -0.09344994515017266 0.0008159830278026614 0.2493514827407229 -0.08194410944078191
  0.2497786649153154 -0.0805061981260351 -0.09344077638703532 0.0008161633281095676 -0.1113575132902813 0.03002136449900966 -0.4002856643103718 -0.8350114381166525
  -0.09275099478961743 0.0006611852248069315 0.2493696079552914 -0.08194958221025865 -0.4003517267088554 -0.8351566049248171 -0.1123981423912374 0.02865244422589134
5190000000 -0.1180963599320452 0.008415286903973243 -0.2571406823521925 -0.8911790694837084 0.2496934446528606 -0.08094951128127607 -0.09286732931897039 0.0008703809827544853
  -0.2571406180770786 -0.8911788711295979 -0.1172320921897859 0.01183309830502568 -0.09357335369951902 0.001027486558205635 0.249237980666089 -0.08238134905174829
  0.2496682652355595 -0.08094180147025001 -0.09356417240716117 0.001027646384928502 -0.1113017232049542 0.03019951913621415 -0.4018417807525622 -0.8342206447146975
  -0.09287419132680193 0.0008703862658906127 0.2492560982810239 -0.08238685397012104 -0.4019081138482606 -0.834365680657878 -0.1123452444741422 0.02883199921788461
5195000000 -0.1181146921131455 0.008596004182127534 -0.2586631064488558 -0.8906946077713348 0.2495818457504446 -0.08138485519116578 -0.09299004800704619 0.001080131272955939
  -0.2586630417745862 -0.8906944093618847 -0.1172439197258888 0.01201816198649764 -0.09369628540609171 0.001239556899996193 0.2491232829972581 -0.08281828079260702
  0.2495566765811724 -0.08137710192340757 -0.09368709163046886 0.00123969619674629 -0.1112454573744497 0.03037748869799748 -0.4033963771912748 -0.8334270802294935
  -0.09299691936074757 0.001080151902456689 0.249141392924646 -0.08282381784000588 -0.4034629807325134 -0.8335719848246391 -0.1122918659124487 0.02901138171922438
5200000000 -0.1181326192913094 0.00877678917504345 -0.2601846242331592 -0.8902076743219789 0.2494690586271965 -0.08181989281227321 -0.09311229615669575 0.001290445041769154
  -0.2601845591593481 -0.8902074758579558 -0.1172553240776004 0.01220328187612782 -0.0938187381813423 0.001452192949570584 0.2490073906146635 -0.08325490127744431
  0.249443899824506 -0.08181209611664852 -0.09380953196861753 0.001452311660065195 -0.1111887164224983 0.03055527198527437 -0.4049494493412922 -0.8326307474138287
  -0.09311917682258564 0.001290481060010363 0.249025492766646 -0.08326047043375248 -0.405016323075633 -0.8327755201783551 -0.1122380072699764 0.02919059053218376
5205000000 -0.1181501413166054 0.008957641112325866 -0.2617052322959016 -0.8897182708331794 0.2493550841645878 -0.08225462077727023 -0.09323407170180176 0.001501321207643576
  -0.2617051668221629 -0.8897180723153507 -0.1172663051117033 0.01238845713014847 -0.09394070993941886 0.001665393596056132 0.2488903044077991 -0.0836912071222379
  0.2493299358469477 -0.08224678068298182 -0.09393149133596193 0.001665491664119843 -0.1111315009748264 0.03073286780086244 -0.406500992921472 -0.8318316490240639
  -0.09324096164604442 0.001501372656926011 0.2489083986965731 -0.08369680836709256 -0.4065681365957137 -0.8319762894758563 -0.1121836691124478 0.02936962446067744
5210000000 -0.1181672580391127 0.009138559223130718 -0.2632249272309416 -0.8892263990045149 0.2492399232531319 -0.0826890357207162 -0.09335537257886647 0.001712758681904638
  -0.2632248613568903 -0.8892262004336496 -0.1172768626953113 0.01257368690431815 -0.09406219859719082 0.00187915772131812 0.2487720252752227 -0.08412719494488108
  0.2492147855389266 -0.08268115225730384 -0.09405296764957703 0.001879235090883033 -0.1110738116591527 0.03091027494947748 -0.4080510036547331 -0.8310297878201325
  -0.09336227176747272 0.001712825604453769 0.2487901116130424 -0.08413282825767289 -0.4081184170149142 -0.8311742954775403 -0.1121288520074861 0.02954848231025628
5215000000 -0.1181839693089215 0.00931954273615096 -0.2647437056351867 -0.8887320605375923 0.2491235767923883 -0.08312313427908424 -0.09347619672703472 0.001924756368759899
  -0.2647436393604406 -0.8887318619144597 -0.117286996695871 0.01275897035390915 -0.09418320207427112 0.002093484199966095 0.2486525541245608 -0.08456286136520388
  0.249098449799916 -0.08311520747642397 -0.09417395882928301 0.002093540815073157 -0.111015649105184 0.03108749223772881 -0.4095994772680462 -0.8302251665655366
  -0.09348310512586069 0.001924838806724844 0.2486706324237367 -0.08456852672507656 -0.4096671600594415 -0.8303695409473805 -0.1120735565246114 0.02972716288810135
5220000000 -0.1182002749761343 0.009500590879602462 -0.2662615641085834 -0.8882352571360449 0.2490060456909659 -0.0835569130907793 -0.09359654208811624 0.002137313165305678
  -0.2662614974327607 -0.8882350584614177 -0.1172967069811638 0.01294430663369514 -0.09430371829304271 0.002308371899360526 0.248531891872512 -0.084998203004994
  0.2489809295384383 -0.0835489429790837 -0.09429446279766854 0.002308407704159762 -0.1109570139446108 0.03126451847411411 -0.4111464094924142 -0.8294177880273456
  -0.09360345966286539 0.002137411160759306 0.2485499620454124 -0.08500390039084645 -0.4112143614595381 -0.829562028652915 -0.1120177832352382 0.02990566500301835
5225000000 -0.1182161748908673 0.009681702881209999 -0.2677784992541042 -0.8877359905055277 0.2488873308665278 -0.08399036879616312 -0.09371640660661044 0.002350427961533533
  -0.2677784321768258 -0.887735791780177 -0.1173059934193072 0.01312969489793847 -0.09442374517868167 0.002523819679619527 0.2484100394448507 -0.08543321648802157
  0.2488622256720693 -0.08398235540598165 -0.0944144774801149 0.002523834618370783 -0.1108979068111027 0.03144135246901528 -0.4126917960628662 -0.8286076549761938
  -0.09372333332283163 0.002350541556471342 0.2484281014039024 -0.08543894587850573 -0.4127600169494739 -0.8287517613652484 -0.1119615327126728 0.03008398746543277
5230000000 -0.1182316689032516 0.009862877968192954 -0.2692945076777353 -0.8872342623537084 0.2487674332457945 -0.08442349803757668 -0.0938357882297271 0.00256409964033659
  -0.2692944401986209 -0.8872340635784095 -0.1173148558787574 0.01331513430037742 -0.09454328065917893 0.002739826393625568 0.2482869977764311 -0.0858678984400592
  0.2487423391274414 -0.08441544139979366 -0.09453400080481944 0.00273982041069968 -0.1108383283403056 0.03161799303469284 -0.4142356327184374 -0.8277947701862802
  -0.09384272405281616 0.002564228876676693 0.2483050514341197 -0.08587365981358092 -0.4143041222675262 -0.8279387418590495 -0.1119048055321107 0.03026212908738309
5235000000 -0.1182467568634348 0.01004411536725156 -0.2708095859884657 -0.8867300743902677 0.248646353764549 -0.08485629745936032 -0.09395468490741089 0.00277832707751644
  -0.2708095181071383 -0.8867298755657946 -0.1173232942283111 0.0135006239942141 -0.09466232266536793 0.002956390887032148 0.2481627678111911 -0.08630224548890481
  0.2486212708402475 -0.08484819760519748 -0.09465303070282016 0.002956363926911098 -0.1107782791698367 0.03179443898528237 -0.4157779152021648 -0.8269791364353655
  -0.09396162980261093 0.002778471997098673 0.2481808130800617 -0.08630803882362459 -0.415846673155972 -0.8271229729125505 -0.1118476022706326 0.03044008868251656
5240000000 -0.1182614386215831 0.01022541430455239 -0.272323730798275 -0.8862234283268903 0.2485240933676391 -0.08528876370787997 -0.0940730945923637 0.002993109141789195
  -0.2723236625143596 -0.8862232294540199 -0.1173313083371079 0.01368616313210151 -0.0947808691309469 0.003173511998271084 0.2480373505021555 -0.08673625426440605
  0.2484990217552462 -0.08528062066889361 -0.09477156510801936 0.003173464005548922 -0.1107177599392814 0.03197068913678871 -0.4173186392610663 -0.8261607565047702
  -0.09408004852476434 0.002993269786374716 0.2480553872948137 -0.08674207953823808 -0.417387665361074 -0.826304457307544 -0.1117899235072044 0.03061786506608292
5245000000 -0.1182757140278819 0.01040677400571437 -0.2738369387221217 -0.885714325877259 0.2484006530089828 -0.08572089343154685 -0.09419101524006829 0.003208444694793063
  -0.2738368700352435 -0.8857141269567687 -0.1173388980746323 0.01387175086613093 -0.09489891799250093 0.003391188558559017 0.2479107468114398 -0.08716992139847998
  0.2483755928262634 -0.08571270723962932 -0.09488960195720803 0.003391119477942649 -0.1106567712901891 0.03214674230708152 -0.4188578006461331 -0.8253396331793728
  -0.09419797817460676 0.003208621106064105 0.2479287750405524 -0.08717577858909298 -0.4189270946330652 -0.8254831978293823 -0.1117317698226722 0.03079545705492879
5250000000 -0.1182895829325387 0.01058819369579473 -0.2753492063779322 -0.8852027687570544 0.2482760336515707 -0.08615268328084208 -0.09430844480881007 0.003424332591094712
  -0.2753491372877173 -0.8852025697897228 -0.1173460633107166 0.01405738634781963 -0.09501646718953008 0.00360941939190423 0.2477829577102543 -0.08760324352513736
  0.2482509850161984 -0.08614445396822069 -0.09500713919009007 0.003609329168214383 -0.1105953138660696 0.03232259731589081 -0.4203953951123151 -0.8245157692476099
  -0.09431541671027038 0.003424524810653364 0.2478009772885492 -0.08760913260995476 -0.4204649567261394 -0.8246591972669747 -0.1116731417997613 0.0309728634674927
5255000000 -0.1183030451857846 0.01076967259927486 -0.2768605303865877 -0.8846887586839431 0.2481502362674708 -0.08658412990833882 -0.09442538125970096 0.003640771678195785
  -0.276860460892665 -0.884688559670551 -0.1173528039155433 0.01424306872809816 -0.0951335146644695 0.003828203315114853 0.2476539841789065 -0.08803621728050584
  0.2481251992970256 -0.08657585750757651 -0.09512417474930394 0.003828091893285964 -0.1105333883123897 0.03249825298480185 -0.4219314184185065 -0.823689167501475
  -0.09443236209271554 0.003640979747564286 0.2476719950191745 -0.08804213823670561 -0.422001247398438 -0.8238324584127884 -0.111614040023074 0.03115008312379871
5260000000 -0.1183161006378769 0.01095120994004593 -0.2783709073719135 -0.8841722973775817 0.248023261837831 -0.08701522996872536 -0.0945418225567017 0.003857760796540444
  -0.2783708374739117 -0.8841720983189101 -0.1173591197596479 0.0144287971572976 -0.09525005836271502 0.004047539137804679 0.247523827206806 -0.08846883930285207
  0.2479982366497998 -0.08700691451271964 -0.0952407065804504 0.004047406462886801 -0.1104709952765698 0.03267370813725048 -0.4234658663275365 -0.8228598307365151
  -0.09454881228575002 0.003857984757159856 0.2475418292219005 -0.08847479210736667 -0.4235359624120332 -0.8230029840628462 -0.1115544650790863 0.03132711484545189
5265000000 -0.1183287491391008 0.01113280494139488 -0.2798803339606652 -0.8836533865596032 0.2478951113528839 -0.08744598011882908 -0.09465776666664545 0.004075298779521716
  -0.2798802636582153 -0.8836531874564342 -0.1173650107139214 0.01461457078513718 -0.09536609623264738 0.004267425662401178 0.2473924877924665 -0.08890110623260455
  0.2478700980646585 -0.0874376216408121 -0.09535673263211271 0.004267271679559392 -0.1104081354079802 0.03284896159851858 -0.4249987346061513 -0.8220277617518313
  -0.09466476525605581 0.004075538672752241 0.2474104808953045 -0.08890709086212123 -0.4250690975329216 -0.8221707770167241 -0.1114944175561473 0.03150395745563216
5270000000 -0.1183409905397723 0.0113144568259903 -0.2813888067825191 -0.8831320279536171 0.2477657858119495 -0.08787637701763856 -0.09477321155926059 0.004293384453489271
  -0.2813887360752541 -0.8831318288067356 -0.1173704766496137 0.01480038876071164 -0.09548162622565498 0.004487861684152497 0.2472599669435107 -0.08933301471237776
  0.2477407845408257 -0.08786797555117699 -0.09547225085588268 0.004487686338668914 -0.1103448093579374 0.03302401219572888 -0.4265300190250097 -0.821192963350078
  -0.09478021897320822 0.004293640320609038 0.2472779510470731 -0.08933903114333883 -0.4266006485310041 -0.8213358400775527 -0.111433898044476 0.03168060977908869
5275000000 -0.1183528246902405 0.01149616481586814 -0.2828963224700599 -0.8826082232852043 0.247635286223439 -0.08830641732632784 -0.09488815520719227 0.004512016637755812
  -0.2828962513576138 -0.8826080240953948 -0.1173755174383365 0.01498625023247868 -0.09559664629615887 0.004708845991135174 0.2471262656766716 -0.08976456138699455
  0.2476102970866164 -0.08829797290532274 -0.09558725920638454 0.004708649228408582 -0.110281017779702 0.03319885875784086 -0.4280597153586598 -0.8203554383374603
  -0.09489517140970179 0.004512288519960671 0.2471442406940051 -0.08977060959559664 -0.4281306111800828 -0.8204981760520137 -0.1113729071361601 0.03185707064213522
5280000000 -0.1183642514408901 0.01167792813241761 -0.284402877658769 -0.8820819742819124 0.2475036136048581 -0.08873609770827848 -0.09500259558602735 0.004731194144604845
  -0.2844028061407763 -0.8820817750499611 -0.1173801329520665 0.01517215434824636 -0.09571115440163647 0.004930377364261198 0.246991385017798 -0.09019574290350871
  0.247478636719439 -0.08872761036696523 -0.0957017556412975 0.004930159129808095 -0.1102167613284742 0.0333735001156452 -0.4295878193855352 -0.819515189523734
  -0.09500962054097162 0.004731482083007604 0.2470093508620141 -0.09020182286570498 -0.4296589812578349 -0.8196577877503417 -0.1113114454251539 0.0320333388726436
5285000000 -0.1183752706421442 0.01185974599636684 -0.2859084689870107 -0.8815532826732482 0.2473707689828106 -0.0891654148291057 -0.09511653067431546 0.004950915779297245
  -0.2859083970631072 -0.8815530833999432 -0.1173843230631483 0.01535810025516036 -0.09582514850264492 0.005152454577285716 0.2468553260018559 -0.09062655591123052
  0.2473458044657984 -0.08915688460205268 -0.09581573812138144 0.005152214816741582 -0.1101520406613917 0.03354793510175968 -0.4311143268879365 -0.8186722197222062
  -0.09512356434541616 0.004951219814927509 0.2468732825861324 -0.09063266760272799 -0.4311857545458145 -0.818814677986321 -0.1112495135072766 0.03220941330003869
5290000000 -0.1183858821444679 0.01204161762776892 -0.287413093096021 -0.8810221501906801 0.2472367533930012 -0.08959436535667903 -0.09522995845359342 0.005171180340079167
  -0.2874130207658459 -0.8810219508768087 -0.117388087644299 0.01554408709969176 -0.09593862656284509 0.005375076396814497 0.2467180896729322 -0.09105699706174755
  0.2472118013613002 -0.0895857922787892 -0.0959292046104991 0.005374815055933718 -0.1100868564375261 0.03372216255062421 -0.4326392336520204 -0.8178265317497324
  -0.09523700080442073 0.005171500513882514 0.2467360369105145 -0.09106314045800948 -0.4327109268294285 -0.817968849577286 -0.1111871119802098 0.03238529275529331
5295000000 -0.1183960857983704 0.0122235422459875 -0.2889167466298985 -0.8804885785676236 0.2471015678802393 -0.09002294596114802 -0.0953428769084065 0.00539198661818906
  -0.2889166738930897 -0.8804883792139772 -0.1173914265686103 0.0157301140276241 -0.09605158654902549 0.005598241582311841 0.2465796770842384 -0.09148706300895058
  0.2470766284506538 -0.09001433006765733 -0.09604215307564082 0.005597958606968857 -0.1100212093178803 0.03389618129849611 -0.4341625354677905 -0.8169781284267161
  -0.09534992790238049 0.005392322971026905 0.2465976148884389 -0.09149323808519548 -0.43423449389793 -0.8171203053441203 -0.1111242414434979 0.03256097607092218
5300000000 -0.1184058814544087 0.01240551906968276 -0.2904194262355879 -0.8799525695394473 0.2469652134984421 -0.09045115331496541 -0.09545528402633223 0.005613333397865282
  -0.2904193530917876 -0.8799523701468165 -0.1173943397095531 0.01591618018404107 -0.09616402643112712 0.005821948886107885 0.2464400892981126 -0.09191675040905618
  0.2469402867876744 -0.09044249464144281 -0.09615458148694804 0.005821644222297868 -0.1099550999653854 0.03406999018344518 -0.4356842281290786 -0.8161270125771107
  -0.095462343626722 0.005613685970513987 0.2464580175823123 -0.09192295714025853 -0.4357564515444029 -0.8162690481112588 -0.1110609024985448 0.03273646208097691
5305000000 -0.1184152689631907 0.01258754731679713 -0.2919211285628731 -0.879414124843461 0.2468276913106364 -0.09087898409291113 -0.09556717779800354 0.005835219456353772
  -0.291921055011723 -0.8794139254126393 -0.1173968269409812 0.01610228471331392 -0.09627594418226509 0.006046197053407045 0.2462993273860234 -0.09234605592063042
  0.2468027774352881 -0.09087028267525869 -0.09626648781773775 0.006045870647246225 -0.1098885290448981 0.03424358804534955 -0.4372043074335347 -0.8152731870284174
  -0.09557424596792767 0.005835588289503845 0.2463172460636714 -0.09235229428151932 -0.4372767955657533 -0.8154150807066809 -0.1109970957486129 0.03291174962104039
5310000000 -0.1184242481753787 0.01276962620454102 -0.2934218502643599 -0.8788732462189159 0.2466890023889642 -0.09130643497211587 -0.09567855621713017 0.006057643563914748
  -0.2934217763055028 -0.8788730467506961 -0.117398888137135 0.0162884267590887 -0.0963873377787543 0.006270984822294884 0.246157392428572 -0.09277497620461214
  0.2466641014655328 -0.09129769084656868 -0.09637787004452592 0.00627063662002212 -0.1098214972231983 0.03441697372589033 -0.4387227691826158 -0.8144166546116846
  -0.0956856329195572 0.00605802869817132 0.2461753014131882 -0.09278124616967438 -0.4387955217626876 -0.8145584059619185 -0.110932821798823 0.03308683752822116
5315000000 -0.1184328189416934 0.0129517549493789 -0.2949215879954685 -0.8783299354069988 0.2465491478146836 -0.0917335026320862 -0.0957894172805232 0.006280604483831683
  -0.2949215136285502 -0.8783297359021751 -0.1174005231726458 0.01647460546427408 -0.09649820520013408 0.006496310923747538 0.2460142855154953 -0.0932035079243391
  0.246524259959563 -0.09172471583521138 -0.09648872614705087 0.006495940871723796 -0.1097540051689853 0.03459014606854714 -0.4402396091815707 -0.8135574181615082
  -0.09579650247827173 0.006281005959712882 0.2460321847206687 -0.09320980946781605 -0.4403126259397116 -0.8136990267120495 -0.1108680812561512 0.03326172464114865
5320000000 -0.1184409811129167 0.01313393276701472 -0.2964203384144182 -0.8777841941508266 0.2464081286781721 -0.09216018375472784 -0.09589975898811608 0.006504100972417627
  -0.2964202636390854 -0.877783994610196 -0.1174017319225395 0.01666081997102841 -0.09660854442918825 0.006722174081637952 0.2458700077456686 -0.09363164774556973
  0.2463832540076516 -0.09215135432342529 -0.09659905410829736 0.006721782126348317 -0.1096860535528771 0.03476310391859355 -0.4417548232394313 -0.8126954805160305
  -0.09590685264385487 0.006504518830354702 0.2458878970850598 -0.09363798084145913 -0.4418281039051098 -0.8128369457956997 -0.110802874729429 0.03343640979996727
5325000000 -0.1184487345398963 0.0133161588723781 -0.297918098182219 -0.8772360241954452 0.2462659460789298 -0.09258647502437106 -0.0960095793429888 0.006728131779023662
  -0.2979180229981186 -0.8772358246198052 -0.1174025142622417 0.0168470694207476 -0.09671835345197306 0.006948573012745706 0.2457245602271091 -0.09405939233650815
  0.246241084709193 -0.09257760299587246 -0.09670885191452176 0.006948159100798902 -0.1096176430474063 0.03493584612309222 -0.4432684071689934 -0.8118308445169433
  -0.09601668141923711 0.006728566059360487 0.2457424396144498 -0.09406575695856455 -0.4433419514709365 -0.8119721660550429 -0.1107372028293423 0.0336108918463312
5330000000 -0.1184560790735493 0.01349843247960995 -0.2994148639626555 -0.8766854272878244 0.2461226011255822 -0.09301237312779308 -0.09611887635139017 0.00695269564604722
  -0.2994147883694375 -0.876685227677972 -0.1174028700675813 0.01703335295405227 -0.09682763025783919 0.007175506426763519 0.2455779440769766 -0.09448673836782848
  0.2460977531727056 -0.09300345853966166 -0.09681811755527343 0.007175070504893667 -0.1095487743270189 0.0351083715308904 -0.44478035678681 -0.8109635130094841
  -0.09612598681051761 0.006953146389039292 0.2455958134260711 -0.09449313448956298 -0.4448541644530001 -0.811104690335803 -0.1106710661684294 0.03378516962339909
5335000000 -0.1184630145648663 0.01368075280204833 -0.300910632422279 -0.8761324051768511 0.2459780949358826 -0.09343787475424585 -0.0962276480227602 0.007177791308938774
  -0.3009105564195931 -0.8761322055335873 -0.1174027992147955 0.01721966971077549 -0.09693637283945421 0.007402973026307199 0.245430160421578 -0.09491368251269924
  0.2459532605158356 -0.09342891764437633 -0.0969268490234196 0.007402515041373586 -0.1094794480680713 0.035280678992615 -0.4462906679131765 -0.8100934888424387
  -0.09623476682698723 0.007178258554753066 0.2454480196463036 -0.0949201101073785 -0.4463647386708543 -0.8102345214872496 -0.1106044653610816 0.03395924197582872
5340000000 -0.1184695408649161 0.01386311905221425 -0.3024054002303905 -0.8755769596133315 0.2458324286367148 -0.09386297659547688 -0.09633589236975289 0.007403417496210414
  -0.3024053238178895 -0.875576759937456 -0.1174023015805344 0.0174060188299501 -0.09704457919282949 0.007630971506922143 0.2452812103963692 -0.09534022144680775
  0.2458076078653586 -0.09385397700209586 -0.09703504431516943 0.007630491405910457 -0.109409664948828 0.03545276736066814 -0.44779933637212 -0.8092207748681399
  -0.09634301948115138 0.007403901284924854 0.2452990594106763 -0.09534668048745594 -0.4478736699477838 -0.8093616623622019 -0.110537401023541 0.03413310774977156
5345000000 -0.1184756578248492 0.01404553044179759 -0.303899164059033 -0.8750190923499803 0.245685603364096 -0.09428767534575631 -0.09644360740825961 0.007629572929444084
  -0.3038990872363715 -0.8750188926422959 -0.1174013770418658 0.01759239944979639 -0.09715224731734064 0.00785950055709338 0.2451310951459567 -0.09576635184838377
  0.2456607963571817 -0.09427863330742124 -0.09714270143009821 0.007858998287116383 -0.1093394256494609 0.03562463548922247 -0.449306357991382 -0.8083453739424703
  -0.09645074278875289 0.007630073301047169 0.2451489338638703 -0.09577284230778152 -0.449380954110789 -0.8084861158170276 -0.1104698737739012 0.03430676579286784
5350000000 -0.118481365295903 0.0142279861816429 -0.3053919205829797 -0.8744588051414226 0.2455376202631787 -0.0947119677019015 -0.09655079115743148 0.007856256323299327
  -0.305391843349811 -0.8744586054027325 -0.1174000254762798 0.01777881070770949 -0.09725937521575412 0.008088558858252805 0.2449798158241011 -0.09619207039822585
  0.2455128271363475 -0.09470288325750034 -0.09724981837116967 0.008088034366551079 -0.1092687308520451 0.0357962822342163 -0.4508117286024113 -0.8074672889248601
  -0.09655793476879374 0.007856773317689096 0.2449976441597212 -0.09619859224891142 -0.4508865869905784 -0.8076078847116466 -0.1104018842321054 0.03448021495424085
5355000000 -0.1184866631294063 0.01441048548173526 -0.3068836664797174 -0.8738960997441875 0.2453884804882533 -0.09513585036330137 -0.09665744163970143 0.008083466385521539
  -0.3068835888356988 -0.8738958999752959 -0.1173982467616946 0.01796525174024714 -0.09736596089424872 0.008318145084788418 0.2448273735937187 -0.09661737377972417
  0.2453637013570352 -0.09512672355205325 -0.09735639314476044 0.008317598318730763 -0.1091975812405587 0.03596770645334949 -0.4523154440403493 -0.8065865226782886
  -0.09666459344355897 0.008084000042505623 0.2448451914612203 -0.09662392699399242 -0.4523905644215526 -0.8067269719095234 -0.1103334330199462 0.03465345408449209
5360000000 -0.1184915511767838 0.01459302755118615 -0.3083743984294389 -0.8733309779167053 0.2452381852027512 -0.09555932003194159 -0.09676355688080718 0.008311201816950038
  -0.3083743203742283 -0.8733307781184179 -0.1173960407764605 0.01815172168311706 -0.09747200236244037 0.008548257904052285 0.2446737696268839 -0.09704225867888755
  0.2452134201825639 -0.0955501508933954 -0.09746242376068476 0.008547688811136815 -0.1091259775008799 0.03613890700607843 -0.4538175001440165 -0.805703078069286
  -0.09677071683863872 0.008311752176244781 0.2446915769405187 -0.09704884322879018 -0.4538928822417959 -0.8058433802776774 -0.1102645207610663 0.03482648203569566
5365000000 -0.1184960292895612 0.01477561159821925 -0.3098641131150289 -0.872763441419303 0.2450867355792456 -0.09598237341242963 -0.09686913490981508 0.008539461311526509
  -0.3098640346482848 -0.8727632415924268 -0.1173934073993665 0.01833821967116456 -0.09757749763340527 0.008778895976369952 0.2445190051048311 -0.09746672178436522
  0.245061984785394 -0.09597316198646461 -0.09756790823221524 0.008778304504224316 -0.1090539203207858 0.03630988275361134 -0.4553178927559008 -0.8048169579679332
  -0.09687630298295084 0.008540028412756631 0.2445368017789277 -0.09747333764171258 -0.4553935362930557 -0.8049571126866787 -0.1101951480809568 0.03499929766139326
5370000000 -0.1185000973193702 0.01495823683015656 -0.3113528072220514 -0.8721934920142033 0.2449341327994549 -0.09640500721201985 -0.09697417375914084 0.008768243556303236
  -0.3113527283434361 -0.8721932921595457 -0.1173903465096448 0.01852474483836026 -0.09768244472370551 0.009010057955048882 0.2443630812179573 -0.09789075978747541
  0.2449093963471296 -0.09639575353884475 -0.09767284457611052 0.009009444051430993 -0.1089814103899501 0.03648063255890407 -0.4568166177221462 -0.8039281652478613
  -0.09698134990876368 0.0087688274390012 0.2443808671669218 -0.09789740692383445 -0.4568925224207409 -0.8040681720106471 -0.1101253156069572 0.03517189981658909
5375000000 -0.1185037551179536 0.01514090245340394 -0.3128404774387397 -0.8716211314655168 0.2447803780542445 -0.0968272181406392 -0.09707867146457343 0.008997547231451799
  -0.3128403981479144 -0.871620931583888 -0.1173868579869764 0.01871129631778755 -0.09778684165340949 0.009241742486386696 0.2442059991658235 -0.09831436938222712
  0.2447556560585217 -0.09681792226079262 -0.09777723081263544 0.009241106099186268 -0.1089084483999427 0.03665115528665551 -0.4583136708925408 -0.8030367027862546
  -0.09708585565171918 0.008998147935057422 0.2442237743041401 -0.09832104776892291 -0.4583898364739006 -0.8031765611272582 -0.1100550239682555 0.03534428735774474
5380000000 -0.1185070025371708 0.01532360767343737 -0.3143271204559821 -0.8710463615392439 0.2446254725436283 -0.09724900291091206 -0.09718262606529743 0.009227371010271003
  -0.3143270407526105 -0.8710461616314533 -0.1173829417114973 0.01889787324163038 -0.09789068644611774 0.009473948209680699 0.2440477601571565 -0.0987375472653485
  0.244600765119468 -0.09723966486526163 -0.09788106496558753 0.009473289286919 -0.108835035044226 0.03682144980330251 -0.4598090481204997 -0.8021425734638495
  -0.09718981825085447 0.009227988574130604 0.2440655243993886 -0.09874425687346337 -0.4598854743052154 -0.8022822829177398 -0.1099842737958886 0.03551645914277351
5385000000 -0.1185098394290027 0.01550635169478873 -0.3158127329673112 -0.870469184003268 0.2444694174767713 -0.09767035823818493 -0.09728603560391502 0.009457713559195492
  -0.3158126528510582 -0.8704689840701268 -0.1173785975638037 0.01908447474116086 -0.09799397712898697 0.009706673757236979 0.2438883654098519 -0.0991602901363083
  0.244444724739017 -0.09766097806792778 -0.09798434506231797 0.009705992247067845 -0.1087611710181559 0.03699151497701621 -0.4613027452630584 -0.8012457801649411
  -0.09729323574862525 0.009458348022562131 0.2439061186706425 -0.09916703093668393 -0.4613794317709863 -0.8013853402668774 -0.1099130657227414 0.03568841403103624
5390000000 -0.1185122656455581 0.01568913372103168 -0.3172973116688904 -0.8698896006273525 0.2443122140719917 -0.09809128084055467 -0.09738889812646985 0.0096885735378051
  -0.3172972311394232 -0.8698894006696742 -0.1173738254249584 0.01927109994672689 -0.09809671173275154 0.00993991775437874 0.2437278161509741 -0.09958259469734512
  0.244287536135369 -0.09808185858721616 -0.09808706913375716 0.009939213605089392 -0.1086868570189785 0.0371613496776966 -0.4627947581808592 -0.8003463257773744
  -0.09739610619092796 0.009689224939837338 0.2437455583450463 -0.09958936666058024 -0.462871704731119 -0.8004857360630101 -0.1098414003835469 0.03586015088333528
5395000000 -0.1185142810390786 0.01587195295476777 -0.3187808532595032 -0.8693076131831406 0.2441538635567611 -0.09851176743889116 -0.09749121168246855 0.009919949598832719
  -0.3187807723164902 -0.8693074132017384 -0.1173686251764963 0.01945774798773999 -0.09819888829174971 0.01017367881945628 0.2435661136167597 -0.1000044576534901
  0.2441292005358775 -0.09850230314432552 -0.09818923521443799 0.01017295197946761 -0.1086120937458297 0.03733095277696871 -0.4642850827381338 -0.7994442131925568
  -0.09749842762712331 0.009920617978594297 0.2435838446589175 -0.1000112607499429 -0.4643622890491137 -0.7995834731980367 -0.1097692784148873 0.03603166856190999
5400000000 -0.1185158854619449 0.01605480859761223 -0.3202633544405405 -0.8687232234441465 0.2439943671677085 -0.09893181475686461 -0.09759297432490321 0.01015184038817308
  -0.3202632730836508 -0.8687230234398358 -0.117362996700431 0.01964441799266285 -0.09830050484394504 0.01040795556385505 0.2434032590526174 -0.1004258757125943
  0.2439697191770517 -0.09892230846325366 -0.09829084134251959 0.01040720598172305 -0.1085368818997339 0.03750032314817799 -0.4657737148026995 -0.7985394453054501
  -0.097600198110057 0.01015252578463257 0.2434209788577466 -0.1004327099123801 -0.4658511805920552 -0.7986785545674132 -0.1096967004551934 0.03620296593043168
5405000000 -0.1185170787666825 0.01623769985018022 -0.3217448119159883 -0.8681364331857605 0.2438337261506202 -0.09935141952097053 -0.09769418411027485 0.01038424454489209
  -0.3217447301448923 -0.8681362331593571 -0.1173569398792612 0.0198311090889973 -0.09840155943095096 0.01064274659200596 0.2432392537131312 -0.1008468455853526
  0.2438090933045574 -0.09934187127082494 -0.09839188555980871 0.01064197421642161 -0.1084612221836029 0.03766945966638545 -0.4672606502459398 -0.7976320250145791
  -0.09770141569608407 0.01038494699692222 0.2432569621961998 -0.100853710858346 -0.4673383752305916 -0.7977709830701593 -0.1096236671447455 0.03637404185399846
5410000000 -0.1185178608059681 0.01642062591207264 -0.3232252223924149 -0.8675472441852374 0.2436719417604419 -0.09977057846055676 -0.09779483909861487 0.01061716070123521
  -0.3232251402067856 -0.8675470441375589 -0.1173504545959762 0.02001782040327191 -0.09850205009805496 0.01087805050139427 0.2430740988620603 -0.1012673639853306
  0.2436473241732194 -0.09976098829671434 -0.0984923659117868 0.01087725528118452 -0.1083851153022338 0.0378383612083639 -0.468745884942796 -0.7967219552220288
  -0.09780207844509047 0.01061788024761252 0.2430917959381191 -0.1012742603011655 -0.4688238688389358 -0.7968607616088536 -0.1095501791256734 0.03654489519913034
5415000000 -0.1185182314326356 0.01660358598186212 -0.3247045825789581 -0.8669556582216998 0.24350901526128 -0.1001892883078486 -0.09789493735350842 0.01085058748263634
  -0.3247044999784697 -0.8669554581535652 -0.1173435407340636 0.02020455106102975 -0.09860197489424052 0.01111386588256859 0.2429077957723412 -0.1016874276289901
  0.2434844130470217 -0.1001796562734742 -0.09859228044763178 0.01111304776669764 -0.1083085619623098 0.0380070266525927 -0.4702294147717524 -0.795809238833446
  -0.09790218442051621 0.01085132416204061 0.2429254813565251 -0.1016943549570589 -0.470307657294841 -0.7959478930896396 -0.1094762370419568 0.03671552483376411
5420000000 -0.1185181904996826 0.01678657925707946 -0.3261828891873175 -0.8663616770761343 0.2433449479264033 -0.1006075457979748 -0.09799447694211703 0.01108452350772736
  -0.3261828061716459 -0.8663614769883619 -0.1173361981775155 0.02039130018681655 -0.09870133187221257 0.01135019131915143 0.2427403457260899 -0.102107033235715
  0.24332036119911 -0.100597871936561 -0.098691627220241 0.01134935025672007 -0.1082315628723981 0.03817545487925435 -0.4717112356148266 -0.7948938787580463
  -0.09800173168937676 0.01108527735874072 0.2427580197336177 -0.1021139915451694 -0.4717897364795934 -0.7950323804222296 -0.1094018415394268 0.03688592962724876
5425000000 -0.1185177378602765 0.01696960493419922 -0.3276601389317366 -0.8657653025313846 0.2431797410382444 -0.1010253476689942 -0.09809345593519944 0.01131896738834645
  -0.3276600555005574 -0.8657651024247953 -0.1173284268108347 0.02057806690416808 -0.09880011908841914 0.01158702538784724 0.2425717500146006 -0.102526177527837
  0.2431551699117926 -0.1010156320243598 -0.0987904042862558 0.01158616132809524 -0.1081541187429491 0.03834364477022923 -0.4731913433575558 -0.7939758779086091
  -0.09810071832228673 0.01131973844945369 0.2425894123607761 -0.1025331667875883 -0.4732701022780024 -0.7941142265198987 -0.1093269932657657 0.03705610845034042
5430000000 -0.1185168733677621 0.01715266220862613 -0.3291363285289929 -0.8651665363721538 0.2430133958883998 -0.101442690661922 -0.0981918724071362 0.01155391772954804
  -0.3291362446819855 -0.86516633624757 -0.1173202265190427 0.02076485033559847 -0.0988983346030764 0.01182436665845343 0.2424020099383492 -0.1029448572306621
  0.2429888404765415 -0.1014329332782124 -0.09888860970608462 0.01182347955075874 -0.108076230286296 0.03851159520909161 -0.4746697338889846 -0.7930552392014832
  -0.09819914239348196 0.01155470603913532 0.2424196605385621 -0.1029518774093812 -0.4747487505783836 -0.7931934342994935 -0.1092516928705079 0.03722606017519727
5435000000 -0.1185155968756673 0.01733575027468116 -0.3306114546983867 -0.8645653803850004 0.2428459137776326 -0.1018595715207555 -0.09828972443595074 0.01178937312961102
  -0.3306113704352305 -0.8645651802432447 -0.117311597187686 0.02095164960258785 -0.09899597648019101 0.01206221369386918 0.2422311268069932 -0.103363069072497
  0.2428213741939932 -0.1018497724424429 -0.09898624154392636 0.01206130348774954 -0.1079978982166544 0.03867930508110565 -0.4761464031016559 -0.792131965556588
  -0.09829700198084099 0.01179017872596585 0.2422487655767192 -0.1033701201386139 -0.4762256772725506 -0.7922700066814328 -0.1091759410050409 0.03739578367537523
5440000000 -0.1185139082377107 0.0175188683255875 -0.3320855141617257 -0.8639618363583336 0.2426772960158718 -0.1022759869925011 -0.0983870101033328 0.01202533218004899
  -0.3320854294821026 -0.8639616362002313 -0.117302538702843 0.02113846382557026 -0.09909304278758503 0.0123005650501058 0.2420591019393727 -0.1037808097846741
  0.2426527723739509 -0.1022661462643834 -0.09908329786779496 0.01229963169521865 -0.1079191232501206 0.03884677327322031 -0.477621346891592 -0.7912060598974178
  -0.09839429516590978 0.01202615510135958 0.2420767287941747 -0.1037878917063791 -0.4777008782558012 -0.7913439465897086 -0.1090997383226068 0.03756527782582293
5445000000 -0.1185118073078083 0.01770201555345711 -0.3335585036433169 -0.8633559060824149 0.2425075439222152 -0.1026919338272013 -0.09848372749465943 0.01226179346561893
  -0.3335584185469099 -0.8633557059087896 -0.1172930509511325 0.02132529212392198 -0.09918953159691826 0.0125394192762958 0.2418859366635112 -0.1041980761015791
  0.2424830363353838 -0.1026820514944017 -0.09917977674954045 0.01253846272243975 -0.1078399061046724 0.03901399867406583 -0.4790945611582899 -0.7902775251510408
  -0.09849102003392106 0.01226263374997347 0.2419035515190397 -0.1042051888468226 -0.4791743494269031 -0.7904152569518885 -0.1090230854783023 0.03773454150287657
5450000000 -0.1185092939400809 0.01788519114927661 -0.3350304198699525 -0.8627475913493495 0.2423366588249284 -0.1031074087779601 -0.09857987469901905 0.01249875556433081
  -0.3350303343564454 -0.8627473911610289 -0.1172831338197197 0.02151213361594917 -0.09928544098371103 0.01277877491470349 0.2417116323166168 -0.1046148647606768
  0.2423121674064289 -0.1030974848859272 -0.09927567626487581 0.01277779511181868 -0.1077602475001677 0.03918098017394904 -0.480566041804704 -0.7893463642481025
  -0.0985871746738199 0.01249961324971725 0.2417292350886107 -0.1046220082971695 -0.4806460866880884 -0.789483940699119 -0.1089459831290804 0.03790357358425599
5455000000 -0.1185063679888613 0.01806839430289363 -0.3365012595708952 -0.8621368939530921 0.2421646420614461 -0.1035224086009701 -0.09867544980923187 0.0127362170474568
  -0.3365011736399739 -0.8621366937509027 -0.1172727871963249 0.02169898741887596 -0.09938076902736984 0.01301863050073494 0.2415361902450822 -0.1050311725025378
  0.242140166924392 -0.1035124431954776 -0.09937099449339723 0.01301762739890352 -0.1076801481583448 0.03934771666484938 -0.4820357847372373 -0.7884125801228289
  -0.09868275717828316 0.01273709217176243 0.2415537808493695 -0.105038346797751 -0.4821160859450332 -0.788550000766127 -0.1088684319337514 0.03807237294905912
5460000000 -0.1185030293087021 0.018251624203003 -0.3379710194778698 -0.8615238156894369 0.2419914949783738 -0.1039369300555402 -0.09877045092187532 0.01297417647954168
  -0.3379709331292214 -0.8615236154742087 -0.1172620109692301 0.02188585264883279 -0.09947551381120877 0.01325898456294719 0.2413596118044856 -0.1054469960708656
  0.2419670362357476 -0.1039269231826867 -0.09946572951860926 0.01325795811239438 -0.1075996088028218 0.03951420704041439 -0.4835037858657301 -0.7874761757130291
  -0.09877776564374467 0.01297506908055202 0.241377190156984 -0.1054542010920304 -0.4835843431068527 -0.7876134400912229 -0.1087904325529847 0.0382409384777582
5465000000 -0.1184992777543824 0.01843488003713319 -0.3394396963250473 -0.8609083583560203 0.241817218931487 -0.1043509699041211 -0.09886487613730226 0.01321263241841087
  -0.3394396095583619 -0.8609081581285816 -0.1172508050272878 0.02207272842084416 -0.09956967342247319 0.01349983562305967 0.2411818983595914 -0.1058623322125216
  0.2417927766961396 -0.1043409216103298 -0.09955987942794711 0.01349878577415425 -0.1075186301590963 0.03968045019595586 -0.4849700411034418 -0.7865371539600966
  -0.09887219817041494 0.01321354253380991 0.2411994643763091 -0.1058695679266305 -0.4850508540860846 -0.7866742616163024 -0.1087119856493091 0.03840926905219439
5470000000 -0.1184951131809167 0.01861816099163255 -0.3409072868490367 -0.8602905237523168 0.2416418152857318 -0.1047645249123335 -0.09895872355966749 0.01345158341518179
  -0.3409071996640039 -0.8602903235134992 -0.1172391692599282 0.02225961384881709 -0.09966324595236563 0.01374118219596353 0.2410030512843502 -0.1062771776775533
  0.2416173896703825 -0.1047544352443513 -0.09965344231280242 0.01374010889921819 -0.1074372129545455 0.03984644502844547 -0.4864345463670471 -0.7855955178090144
  -0.09896605286230571 0.01345251108255107 0.241020604881386 -0.1062844440513604 -0.4865156147986784 -0.7857324682868503 -0.1086330918871155 0.03857736355557362
5475000000 -0.1184905354435619 0.01880146625165561 -0.3423737877888687 -0.8596703136796369 0.2414652854152263 -0.1051775918489939 -0.09905199129694643 0.01369102801427202
  -0.3423737001851801 -0.859670113430273 -0.1172271035571674 0.02244650804552901 -0.09975622949606459 0.01398302278973185 0.2408230719618993 -0.1066915292192219
  0.2414408765324604 -0.1051674608538916 -0.09974641626854296 0.01398192599580453 -0.1073553579184263 0.04001219043651085 -0.4878972975766184 -0.7846512702083549
  -0.09905932782725084 0.01369197327109039 0.2408406130554441 -0.1066988262192411 -0.4879786211639874 -0.7847880630519424 -0.1085537519326578 0.03874522087246224
5480000000 -0.1184855443978257 0.01898479500114963 -0.3438391958859855 -0.8590477299411267 0.2412876307032596 -0.1055901674861436 -0.09914467746096034 0.01393096475341062
  -0.3438391078633348 -0.8590475296820488 -0.1172146078096163 0.02263341012261631 -0.09984862215275121 0.01422535590563059 0.2406419617845622 -0.1071053835940263
  0.2412632386655287 -0.1055799952113153 -0.09983879939453923 0.01422423556532484 -0.1072730657818746 0.04017768532043128 -0.4893582906556175 -0.7837044141102829
  -0.09915202117692824 0.01393192763705325 0.2406594902908993 -0.1071127111865344 -0.4894398691047497 -0.7838410488642494 -0.1084739664540539 0.03891283988878171
5485000000 -0.1184801398994745 0.01916814642284081 -0.3453035078842279 -0.858422774341763 0.2411088525422931 -0.1060022485990731 -0.09923678016739673 0.01417139216364638
  -0.3453034194423093 -0.8584225740738056 -0.1172016819084872 0.02282031919056228 -0.09994042202563294 0.014468180038129 0.2404597221538499 -0.1075187375617332
  0.2410844774619135 -0.1059920350922364 -0.09993058979418587 0.01446703610239402 -0.1071903372779065 0.0403429285821336 -0.4908175215308795 -0.7827549524705628
  -0.09924413102688454 0.01417237271138508 0.2404772379893559 -0.107526095712767 -0.4908993545470794 -0.7828914286800397 -0.1083937361212889 0.03908021949180506
5490000000 -0.1184743218045422 0.01935151969822101 -0.3467667205298216 -0.857795448688355 0.2409289523339596 -0.1064138319663524 -0.09932829753583249 0.01441230876935923
  -0.3467666316683333 -0.8577952484123534 -0.1171883257456044 0.02300723435868562 -0.1000316272219646 0.01471149367490907 0.2402763544804607 -0.1079315878854031
  0.2409045943231117 -0.1064035772755476 -0.100021785574926 0.01471032609484173 -0.1071071731414179 0.04050791912518849 -0.4922749861326047 -0.7818028882485577
  -0.09933565549655506 0.01441330701836114 0.2402938575616054 -0.1079389765607621 -0.4923570734204598 -0.7819392054591793 -0.1083130616062151 0.0392473585701519
5495000000 -0.1184680899693377 0.01953491400753408 -0.3482288305713698 -0.8571657547895399 0.2407479314890636 -0.1068249143698557 -0.0994192276897562 0.01465371308826932
  -0.3482287412900079 -0.8571655545063303 -0.1171745392134108 0.02319415473512873 -0.1001222358530725 0.01495529529687723 0.2400918601842784 -0.1083439313314154
  0.2407235906597909 -0.106814618543446 -0.1001123848482738 0.01495410402372189 -0.1070235741091843 0.04067265585480639 -0.4937306803943482 -0.7808482244072313
  -0.09942659270928642 0.01465472907559658 0.2401093504276271 -0.1083513504966618 -0.4938130216577223 -0.7809843821651422 -0.1082319435825556 0.03941425601378443
5500000000 -0.1184614442504543 0.01971832852976241 -0.3496898347598335 -0.8565336944557812 0.240565791427582 -0.107235492594792 -0.09950956875658892 0.01489560363144718
  -0.3496897450582988 -0.8565334941662009 -0.1171603222049777 0.02338107942684604 -0.1002122460343801 0.0151995833781753 0.2399062406943751 -0.1087557646695001
  0.2405414678917901 -0.1072251556814619 -0.1002023857298384 0.01519836836332393 -0.1069395409198623 0.04083713767783319 -0.4951846002530024 -0.7798909639131576
  -0.09951694079235951 0.014896637394057 0.2399237180165866 -0.1087632142899564 -0.4952671951950429 -0.7800269617650054 -0.108150382725905 0.03958091071400275
5505000000 -0.118454384504778 0.01990176244261353 -0.3511497298485245 -0.8558992694993682 0.2403825335786624 -0.1076455634297287 -0.09959931886770899 0.01513797890332411
  -0.3511496397265171 -0.8558990692042573 -0.1171456746140134 0.02356800753959246 -0.1003016558854261 0.0154443563861892 0.2397194974490074 -0.1091670846727608
  0.2403582274481182 -0.1076351854784853 -0.1002917863393476 0.01544311758118347 -0.1068550743139888 0.04100136350274656 -0.496636741648788 -0.7789311097365167
  -0.09960669787701093 0.01513903047806763 0.2397369617668377 -0.1091745647135129 -0.4967195899719253 -0.7790669472294585 -0.1080683797137317 0.03974732156344049
5510000000 -0.1184469105894964 0.02008521492250672 -0.3526085125930905 -0.8552624817344155 0.2401981593806237 -0.1080551236666224 -0.09968847615847151 0.01538083740170218
  -0.3526084220503136 -0.855262281434613 -0.1171305963348719 0.0237549381779119 -0.1003904635298934 0.01568961278156232 0.2395316318956192 -0.1095778881177039
  0.2401738707669545 -0.1080447047267944 -0.1003805848006683 0.01568835013809324 -0.1067701750339827 0.04116533223965219 -0.4980871005252457 -0.7779686648511031
  -0.09969586209845657 0.01538190682532413 0.2395490831259204 -0.1095853985436013 -0.4981702019311903 -0.7781043415328031 -0.1079859352253808 0.03991348745606109
5515000000 -0.1184390223621078 0.02026868514455975 -0.3540661797515052 -0.8546233329768587 0.2400126702809555 -0.1084641701008459 -0.09977703876823246 0.01562417761776456
  -0.3540660887876621 -0.8546231326732048 -0.117115087262562 0.02394187044512574 -0.1004786670956281 0.01593535101820466 0.2393426454908391 -0.1099881717842671
  0.2399883992956479 -0.1084537102220826 -0.1004687792418335 0.01593406448811318 -0.1066848438241445 0.04132904280027955 -0.499535672829218 -0.7770036322343291
  -0.09978443159591113 0.01562526492690309 0.2393600835505604 -0.1099957125599203 -0.4996190270189662 -0.7771391476529598 -0.107903049942075 0.04007940728715302
5520000000 -0.1184307196804296 0.02045217228257537 -0.3555227280840516 -0.8539818250444529 0.2398260677363178 -0.1088726995312144 -0.09986500484037007 0.01586799803608578
  -0.3555226366988484 -0.8539816247377903 -0.1170991472927567 0.02412880344332134 -0.1005662647146654 0.01618156954330436 0.2391525397004814 -0.1103979324558451
  0.2398018144907168 -0.1088621987634866 -0.1005563677950639 0.01618025907858302 -0.1065990814306573 0.04149249409797844 -0.5009824545108448 -0.7760360148672258
  -0.09987240451261364 0.01586910326727159 0.2391699645066695 -0.1104055035456286 -0.5010660611846763 -0.7761713685714687 -0.1078197245469177 0.0402450799533261
5525000000 -0.1184220024026087 0.02063567550902832 -0.3569781543533143 -0.8533379597567763 0.2396383532125396 -0.1092807087600157 -0.09995237252230667 0.0161122971346423
  -0.3569780625464579 -0.8533377594479465 -0.1170827763218023 0.02431573627334078 -0.1006532545232512 0.01642826679733865 0.2389613159995432 -0.1108071669193185
  0.2396141178178479 -0.1092701671536142 -0.1006433485967899 0.016426932350131 -0.1065128886015877 0.04165568504771478 -0.502427441523545 -0.775065815734448
  -0.09995977899584657 0.01611342032429809 0.238978727469344 -0.1108147682873697 -0.5025113003810234 -0.7752010072734948 -0.1077359597248953 0.04041050435250694
5530000000 -0.1184128703871299 0.02081919399505191 -0.3584324553241641 -0.85269173893522 0.2394495281846191 -0.1096881945930361 -0.1000391399655314 0.01635707338482235
  -0.3584323630953633 -0.8526915386250684 -0.1170659742467276 0.02450266803476938 -0.1007396346618652 0.01667544121408505 0.2387689758722061 -0.1112158719650805
  0.2394253107518961 -0.1096776121985723 -0.1007297197876763 0.0166740827366874 -0.1064262660868865 0.04181861456606751 -0.5038706298240098 -0.7740930378242794
  -0.1000465531969599 0.0163582145692628 0.2387863739228643 -0.1112235035753001 -0.5039547405639854 -0.7742280667478327 -0.1076517561628793 0.04057567938393497
5535000000 -0.1184033234928261 0.02100272691042485 -0.3598856277637461 -0.8520431644029968 0.239259594136722 -0.1100951538395903 -0.1001253053256224 0.01660232525143749
  -0.3598855351127107 -0.8520429640923689 -0.1170487409652542 0.02468959782592446 -0.1008254032752458 0.01692309122063256 0.2385755208118336 -0.1116240443870661
  0.2392353947768827 -0.1100845307079952 -0.100815479512646 0.016921708665494 -0.1063392146383894 0.04198128157122395 -0.5053120153721888 -0.7731176841286354
  -0.1001327252713921 0.01660348446686841 0.2385929053606939 -0.111631706203119 -0.5053963776927967 -0.7732525499869086 -0.1075671145496294 0.04074060394815875
5540000000 -0.1183933615788869 0.0211862734235583 -0.3613376684414675 -0.8513922379851329 0.2390685525621815 -0.1105015833125477 -0.100210866762268 0.0168480511927322
  -0.3613375753679094 -0.8513920376748745 -0.1170310763758051 0.02487652474384413 -0.1009105585124116 0.01717121523739266 0.2383809523209711 -0.1120316809827784
  0.2390443713859959 -0.1104909194950719 -0.1009006259209002 0.01716980855711552 -0.1062517350098181 0.04214368498297667 -0.5067515941312777 -0.7721397576430671
  -0.1002182933786933 0.01684922847524998 0.2383983232854787 -0.1120393729680929 -0.5068362077299412 -0.7722744599867846 -0.1074820355757951 0.0409052769470314
5545000000 -0.1183829845048696 0.02136983270148259 -0.362788574128985 -0.8507389615084691 0.238876404963496 -0.1109074798283616 -0.1002958224392893 0.01709424966039527
  -0.3627884806326176 -0.8507387611994276 -0.1170129803775157 0.02506344788427594 -0.1009950985266846 0.01741981167811109 0.2381852719113435 -0.1124387785533178
  0.2388522420815878 -0.110896775376575 -0.1009851571659449 0.01741838082545214 -0.1061638279567816 0.04230582372272008 -0.50818936206771 -0.7711592613667647
  -0.100303255682546 0.01709544504598656 0.2382026292090452 -0.1124465006710866 -0.5082742266411393 -0.7712937997471656 -0.1073965199339194 0.04106969728370732
5550000000 -0.1183721921307086 0.02155340390983437 -0.3642383416001935 -0.8500833368016598 0.2386831528523289 -0.1113128402070975 -0.1003801705246625 0.01734091909956972
  -0.3642382476807325 -0.8500831364946838 -0.1169944528702428 0.02525036634166605 -0.1010790214757135 0.01766887894987831 0.237988481103856 -0.11284533390341
  0.2386590083751749 -0.1113020951728887 -0.1010690714056127 0.01766742387774972 -0.1060754942367769 0.04246769671344598 -0.5096253151511426 -0.770176198302564
  -0.1003876103507883 0.01734213262411098 0.2380058246523999 -0.1128530861165897 -0.509710430395335 -0.770310572271398 -0.107310568318441 0.04123386386263762
5555000000 -0.1183609843167253 0.02173698621284343 -0.3656869676312112 -0.8494253656951736 0.2384887977495073 -0.1117176612724612 -0.1004639091905406 0.0175880579488647
  -0.3656868732883722 -0.8494251653911111 -0.1169754937545749 0.02543727920914768 -0.1011623255214977 0.01791841545314226 0.2377905814285908 -0.113251343841433
  0.2384646717874363 -0.1117068757080365 -0.1011523668020841 0.01791693611461118 -0.1059867346091903 0.04262930287974112 -0.5110594493544462 -0.7691905714569495
  -0.1004713555554353 0.01758928964812155 0.2378079111457279 -0.1132591261127444 -0.5111448149646883 -0.7693247805664806 -0.107224181425697 0.04139777558956688
5560000000 -0.1183493609236382 0.02192057877332 -0.3671344490003693 -0.8487650500212873 0.2382933411850199 -0.1121219398518266 -0.1005470366132752 0.01783566464036513
  -0.3671343542338703 -0.8487648497209902 -0.1169561029318426 0.02562418557853051 -0.1012450088304089 0.01816841958171915 0.2375915744248065 -0.1136568051794459
  0.2382692338482117 -0.1121111138097114 -0.1012350415219136 0.01816691593000938 -0.1058975498352989 0.04279064114778243 -0.5124917606536902 -0.7682023838400573
  -0.100554489472701 0.01783691454999215 0.2376088902283913 -0.1136646174713757 -0.51257737632456 -0.7683364276430638 -0.1071373599539265 0.04156143137152882
5565000000 -0.1183373218125737 0.02210418075264168 -0.3685807824881989 -0.8481023916140916 0.238096784698016 -0.1125256727762655 -0.1006295509734388 0.01808373759964368
  -0.3685806872977589 -0.8481021913184108 -0.1169362803041286 0.02581108454028943 -0.1013270695732149 0.01841888972280503 0.237391461640937 -0.1140617147332177
  0.238072696096501 -0.1125148063093024 -0.1013170937360509 0.01841736171129679 -0.1058079406782714 0.0429517104453346 -0.5139222450281385 -0.7672116384656805
  -0.1006370102830206 0.0180850057551833 0.2374087634489278 -0.114069557008017 -0.5140081104535011 -0.7673455165154571 -0.1070501046032732 0.04172483011684312
5570000000 -0.1183248668450765 0.02228779131074062 -0.3700259648774165 -0.8474373923094853 0.2378991298368039 -0.1129288568805748 -0.100711450455847 0.01833227524577091
  -0.3700258692627571 -0.8474371920192746 -0.1169160257742784 0.02599797518355373 -0.1014085059251031 0.01866982425698799 0.2371902446345889 -0.1144660693222553
  0.2378750600804616 -0.1129179500419239 -0.1013985216198633 0.01866827183921948 -0.1057179079031704 0.04311250970174573 -0.5153508984602307 -0.7662183383512783
  -0.100718916171072 0.01833356168265345 0.2372075323650484 -0.1144739415419397 -0.5154370133332451 -0.7663520502016329 -0.1069624160757878 0.04188797073511139
5575000000 -0.1183119958831194 0.02247140960609092 -0.3714699929529144 -0.8467700539451789 0.2377003781588492 -0.1133314890033065 -0.1007927332495797 0.01858127599132691
  -0.3714698969137585 -0.8467698536612909 -0.1168953392459107 0.02618485659609608 -0.1014893160657017 0.01892122155825931 0.2369879249725405 -0.1148698657698312
  0.2376763273574072 -0.1133205418464447 -0.1014793233531611 0.01891964468792691 -0.1056274522769527 0.04327303784794477 -0.5167777169355756 -0.7652224865179705
  -0.1008002053257992 0.01858258074487012 0.2370051985436374 -0.1148777678961831 -0.5168640809486899 -0.7653560317232282 -0.1068742950754322 0.04205085213721341
5580000000 -0.1182987087891152 0.02265503479569576 -0.3729128635017482 -0.8461003783606894 0.2375005312307724 -0.1137335659867947 -0.1008733975480031 0.01883073824241201
  -0.3729127670378188 -0.8461001780839784 -0.1168742206234281 0.02637172786432197 -0.1015694981791042 0.01917307999402582 0.2367845042307397 -0.115273100903013
  0.2374764994938061 -0.1137225785655159 -0.101559497120218 0.01917147862498452 -0.1055365745684721 0.0434332938164374 -0.5182026964429379 -0.7642240859905537
  -0.1008808759404318 0.01883206134782063 0.236801763560748 -0.1152810328975799 -0.518289309287893 -0.7643574641055565 -0.1067857423080823 0.04221347323530397
5585000000 -0.1182850054259267 0.02283866603507469 -0.3743545733131203 -0.8454283673973426 0.2372995906283473 -0.1141350846771861 -0.1009534415487923 0.01908066039865846
  -0.3743544764241437 -0.8454281671286649 -0.1168526698120278 0.02655858807325867 -0.1016490504538926 0.01942539792512154 0.236579983994302 -0.1156757715526917
  0.2372755780652789 -0.1141240570456002 -0.1016390411097955 0.01942377201138605 -0.10544527554848 0.04359327654130329 -0.5196258329742273 -0.7632231397974968
  -0.1009609262125091 0.01908200189102309 0.2365972290016028 -0.1156837333767863 -0.5197126943420566 -0.7633563503776053 -0.106696758481531 0.04237583294280884
5590000000 -0.118270885656878 0.02302230247825129 -0.3757951191783722 -0.8447540228982724 0.2370975579364998 -0.114536041924468 -0.1010328634539525 0.01933104085324098
  -0.3757950218640767 -0.8447538226384858 -0.1168306867177125 0.02674543630654483 -0.1017279710831593 0.01967817370581993 0.2363743658575082 -0.1160778745536092
  0.237073564656597 -0.1145249741370004 -0.1017179535151651 0.01967652320156488 -0.1053535559896278 0.04375298495819215 -0.5210471225244869 -0.7622196509709543
  -0.1010403543438999 0.01933240076753842 0.2363915964605898 -0.1160858661683116 -0.5211342321055187 -0.7623526935720443 -0.106607344305492 0.04253793017442168
5595000000 -0.1182563493457658 0.02320594327774027 -0.37723449789097 -0.8440773467084211 0.2368944347493041 -0.1149364345824967 -0.1011116614698415 0.01958187799288899
  -0.3772344001510834 -0.8440771464583816 -0.116808271247302 0.02693227164641952 -0.1018062582645293 0.01993140568384576 0.2361676514238027 -0.1164794067443893
  0.2368704608616789 -0.1149253266938888 -0.1017962325341321 0.01992973054340682 -0.1052614166664682 0.04391241800432143 -0.5224665610918839 -0.7612136225467633
  -0.1011191585408271 0.01958325636398126 0.2361848675412617 -0.1164874281105449 -0.5225539185757382 -0.7613464967252332 -0.1065175004916034 0.0426997638461003
5600000000 -0.1182413963568704 0.0233895875845352 -0.3786727062464903 -0.8433983406745349 0.2366902226699816 -0.1153362595090274 -0.101189833807191 0.01983317019789721
  -0.3786726080807426 -0.8433981404351033 -0.1167854233084436 0.02711909317371185 -0.101883910200186 0.02018509220038721 0.2359598423057909 -0.1168803649675642
  0.2366662682835903 -0.1153251115743357 -0.1018738763690574 0.02018339237826142 -0.1051688583554574 0.04407157461847211 -0.5238841446776951 -0.7602050575644569
  -0.1011973370138861 0.01983456706053103 0.2359770438563323 -0.1168884160457855 -0.5239717497532883 -0.7603377628772203 -0.1064272277534303 0.04286133287506386
5605000000 -0.1182260265549671 0.023573234548096 -0.380109741042609 -0.8427170066451702 0.2364849233108978 -0.1157355135657433 -0.1012673786811277 0.02008491584213741
  -0.3801096424507329 -0.8427168064172049 -0.1167621428096236 0.0273058999678305 -0.1019609250968905 0.02043923159010842 0.2357509401252364 -0.117280746069604
  0.2364609885345391 -0.1157243256403383 -0.1019508832268811 0.02043750704095499 -0.1050758818349571 0.04423045374098634 -0.5252998692863003 -0.7591939590672591
  -0.1012748879780697 0.02008633123094404 0.2357681270276749 -0.1172888268202708 -0.5253877216418437 -0.7593264950717529 -0.1063365268064692 0.0430226361797887
5610000000 -0.1182102398053382 0.02375688331633668 -0.3815455990790899 -0.8420333464706882 0.2362785382935602 -0.1161341936182841 -0.1013442943111967 0.0203371132930701
  -0.3815455000608194 -0.8420331462550512 -0.1167384296601792 0.02749269110675317 -0.1020373011660069 0.02069382218116164 0.235540946513059 -0.1176805469009471
  0.2362546232358755 -0.1161229657578514 -0.1020272513191438 0.02069207285980243 -0.1049824878852356 0.04438905431376378 -0.5267137309251663 -0.7581803301021013
  -0.1013518096527883 0.02033854724256464 0.2355581186863193 -0.1176886572842055 -0.5268018302481686 -0.7583126963562816 -0.1062453983681522 0.04318367268000593
5615000000 -0.118194035973784 0.02394053303561288 -0.3829802771577712 -0.8413473620032574 0.2360710692486156 -0.116532296536275 -0.1014205789213821 0.02058976091175568
  -0.3829801777128405 -0.8413471618008095 -0.1167142837703094 0.02767946566701618 -0.1021130366235245 0.02094886229519945 0.235329863109332 -0.1180797643160262
  0.2360471740180865 -0.1165210287968139 -0.1021029788620126 0.02094708815661959 -0.1048886772884716 0.04454737528025884 -0.5281257256048407 -0.7571641737196204
  -0.1014281002618918 0.02059121345633683 0.2353470204724497 -0.1180879042917904 -0.5282140715821046 -0.7572963697819656 -0.106153843157849 0.04334444129669749
5620000000 -0.1181774149266353 0.02412418285070967 -0.3844137720825498 -0.8406590550968508 0.2358625178158467 -0.1169298191933566 -0.1014962307401293 0.02084285705286661
  -0.3844136722106974 -0.840658854908456 -0.116689705051087 0.02786622272370423 -0.1021881296900791 0.0212043502473872 0.2351176915632794 -0.1184783951733007
  0.2358386425207957 -0.11691851163118 -0.1021780640763002 0.02120255124673613 -0.104794450828754 0.04470541558547796 -0.5295358493389382 -0.7561454929741674
  -0.1015037580336912 0.02084432822681585 0.2351348340354013 -0.1184865647012523 -0.5296244416565655 -0.7562775184036757 -0.1060618618968727 0.04350494095209369
5625000000 -0.1181603765307646 0.02430783190482945 -0.3858460806593769 -0.8399684276072513 0.2356528856441703 -0.1173267584672149 -0.1015712480003664 0.02109640006469908
  -0.3858459803603391 -0.8399682274337724 -0.1166646934144706 0.02805296135044017 -0.102262578590978 0.02146028434641603 0.2349044335332722 -0.1188764363352833
  0.2356290303927586 -0.1173154111389484 -0.1022525051874904 0.02145846043900774 -0.1046998092920867 0.04486317417597586 -0.5309440981441285 -0.7551242909238117
  -0.101578781200981 0.02109788990218026 0.2349215610336575 -0.1188846353748712 -0.5310329364875179 -0.7552561452800073 -0.1059694553084823 0.04366517056966957
5630000000 -0.1181429206535992 0.02449147933957977 -0.3872771996962347 -0.8392754813920442 0.2354421743916333 -0.1177231112396087 -0.1016456289395257 0.02135038828918397
  -0.3872770989697523 -0.8392752812343481 -0.1166392487733157 0.02823968061937469 -0.1023363815562221 0.02171666289451486 0.2346900906868268 -0.1192738846685695
  0.2354183392918609 -0.1177117242021913 -0.1023263004257591 0.02171481403582885 -0.1046047534663886 0.04502064999985311 -0.5323504680401271 -0.7541005706303477
  -0.1016531680010606 0.02135189682424327 0.2347072031348475 -0.1192821131790119 -0.5324395520939779 -0.7542322534732738 -0.1058766241178868 0.04382512907414218
5635000000 -0.118125047163132 0.02467512429496121 -0.388707126003132 -0.8385802183106256 0.23523038572541 -0.118118874396401 -0.1017193717995662 0.02160482006190028
  -0.3887070248489463 -0.8385800181695766 -0.1166133710413879 0.02842637960117625 -0.1024095368205268 0.02197348418746372 0.2344746647006009 -0.1196707370438684
  0.2352065708851139 -0.1181074477070832 -0.1023994480259978 0.021971610333145 -0.1045092841414974 0.04517784200675338 -0.5337549550496874 -0.7530743351592997
  -0.1017269166757556 0.02160634732846498 0.2344917620157424 -0.1196789949841515 -0.533844284497996 -0.7532058460495267 -0.1057833690522509 0.04398481539146761
5640000000 -0.1181067559279355 0.02485876590935565 -0.3901358563920874 -0.8378826402241957 0.2350175213217986 -0.1185140448275862 -0.1017924748269938 0.02185969371208541
  -0.3901357548099424 -0.8378824401006622 -0.1165870601333738 0.02861305736502118 -0.1024820426233466 0.02223074651460566 0.2342581572603902 -0.120066990336031
  0.2349937268486525 -0.1185025785439317 -0.102471946227836 0.0222288476204662 -0.1044134021091715 0.04533474914786052 -0.5351575551985832 -0.7520455875799291
  -0.1018000254714393 0.02186123974396406 0.2342752393622521 -0.120075277664909 -0.5352471297246475 -0.7521769260785489 -0.1056896908406963 0.04414422844883802
5645000000 -0.1180880468171731 0.02504240331951399 -0.3915633876771202 -0.8371827489957648 0.2348035828662183 -0.1189086194273237 -0.1018649362728844 0.02211500756264799
  -0.391563285666759 -0.8371825488906138 -0.1165603159648945 0.02879971297858355 -0.1025538972088981 0.02248844815886071 0.2340405700611256 -0.1204626414240788
  0.2347798088677314 -0.1188971136072064 -0.1025437932756648 0.02248652418087956 -0.1043171081630924 0.04549137037589563 -0.536558264515604 -0.7510143309652382
  -0.1018724926390555 0.02211657239352988 0.2340576368694226 -0.1204709581000754 -0.5366480838020211 -0.7511454966338701 -0.1055955902143085 0.04430336717467865
5650000000 -0.1180689197006119 0.02522603566054465 -0.3929897166742338 -0.8364805464901469 0.2345885720532053 -0.119302595093963 -0.1019367543929045 0.02237075993018029
  -0.3929896142354036 -0.8364803464042484 -0.1165331384525169 0.02898634550802529 -0.1026250988261811 0.02274658739673774 0.2338219048068696 -0.1208576871912341
  0.2345648186367216 -0.1192910497955688 -0.1026149874186567 0.0227446382910618 -0.1042204030988674 0.04564770464511441 -0.537957079032541 -0.7499805683919807
  -0.1019443164341385 0.02237234359363448 0.2338389562414317 -0.1208660331726423 -0.5380471427612089 -0.7501115607927691 -0.1055010679061396 0.04446223049864532
5655000000 -0.118049374448636 0.02540966206590159 -0.3944148402014043 -0.835776034573969 0.2343724905864094 -0.1196959687300763 -0.1020079274473337 0.02262694912496972
  -0.3944147373338527 -0.8357758345081923 -0.1165055275137671 0.02917295401798633 -0.1026956457290008 0.02300516249834748 0.2336021632108116 -0.1212521245249495
  0.2343487578591063 -0.1196843840119014 -0.1026855269107924 0.02300318822129252 -0.1041232877140327 0.04580375091130488 -0.5393539947841761 -0.7489443029406626
  -0.1020154951168361 0.02262855165444479 0.2336191991915853 -0.1212604997698315 -0.5394443026362966 -0.7490751216362778 -0.1054061246512135 0.04462081735162175
5660000000 -0.1180294109322588 0.02559328166737267 -0.39583875507857 -0.8350692151156627 0.2341553401785896 -0.1200887372424872 -0.1020784537010855 0.02288357345101085
  -0.3958386517820472 -0.8350690150708793 -0.1164774830671423 0.02935953757157505 -0.1027655361759933 0.02326417172741709 0.2333813469952662 -0.1216459503169377
  0.2341316282474778 -0.120077113163338 -0.1027554100108797 0.02326217223546767 -0.1040257628080548 0.04595950813178386 -0.5407490078082753 -0.7479055376955511
  -0.10208602695193 0.02288519487983489 0.2333983674423146 -0.1216543547831256 -0.5408395594643499 -0.7480361822491904 -0.1053107611865286 0.04477912666571637
5665000000 -0.1180090290231366 0.02577689359506806 -0.397261458127617 -0.8343600899854718 0.2339371225516119 -0.1204808975423009 -0.1021483314237286 0.02314063120601854
  -0.3972613544018735 -0.8343598899625548 -0.1164490050321242 0.02954609523035833 -0.1028347684306451 0.02352361334130144 0.2331594578916675 -0.1220391614632
  0.2339134315235338 -0.1204692341612941 -0.1028246349825779 0.02352158859111166 -0.1039278291823347 0.04611497526539566 -0.5421421141455721 -0.7468642757446824
  -0.1021559102088585 0.02314227156739816 0.2331764627251713 -0.122047595108296 -0.5422329092854071 -0.746994745720071 -0.1052149782510652 0.04493715737426041
5670000000 -0.1179882285935809 0.02596049697740865 -0.398682946172366 -0.8336486610554498 0.2337178394364433 -0.1208724465449343 -0.102217558889509 0.02339812068143937
  -0.3986828420171551 -0.8336484610552711 -0.1164200933291916 0.02973262605435213 -0.1029033407613164 0.02378348559099709 0.2329364976405658 -0.1224317548640572
  0.233694169418072 -0.1208607439214959 -0.1028932000944197 0.02378143553939207 -0.10382948764021 0.0462701512725084 -0.5435333098397617 -0.7458205201798649
  -0.1022251431617364 0.02339978000845918 0.2329534867808245 -0.1224402176454336 -0.5436243481424666 -0.7459508151412565 -0.1051187765857874 0.04509490841180504
5675000000 -0.1179670095165726 0.02614409094111458 -0.4001032160385612 -0.8329349301994607 0.2334974925731482 -0.1212633811701447 -0.1022861343773711 0.02365604016246478
  -0.4001031114536361 -0.8329347302228941 -0.1163907478798333 0.02991912910201187 -0.1029712514412652 0.02404378672115609 0.2327124679916241 -0.1228237274241792
  0.2334738436709875 -0.1212516393640093 -0.1029611036198339 0.0240417113251313 -0.1037307389869579 0.04642503511501259 -0.5449225909374869 -0.7447742740966896
  -0.1022937240893783 0.02365771848808749 0.2327294413590554 -0.1228322192989787 -0.5450138720814766 -0.7449043936088646 -0.105022156933649 0.04525237871411884
5680000000 -0.1179453716657749 0.02632767461119386 -0.4015222645538561 -0.8322188992931794 0.2332760837108853 -0.121653698342062 -0.1023540561709799 0.02391438792804286
  -0.4015221595389736 -0.8322186993411004 -0.1163609686065613 0.03010560343022304 -0.1030384987486673 0.02430451497009804 0.232487370703612 -0.1232150760526131
  0.233252456031268 -0.1216419174132729 -0.1030283438371685 0.02430241418682126 -0.1036315840297984 0.04657962575631783 -0.546309953488333 -0.7437255405945316
  -0.1023616512753183 0.02391608528510804 0.232504328218754 -0.1232235969777497 -0.5464014771513251 -0.7438554842228039 -0.1049251200395978 0.04540956721818559
5685000000 -0.117923314915547 0.02651124711093095 -0.4029400885478017 -0.831500570214095 0.2330536146079018 -0.1220433949892169 -0.1024213225587415 0.02417316225089144
  -0.4029399831027192 -0.8315003702873796 -0.1163307554329241 0.03029204809429175 -0.1031050809666405 0.02456566856982533 0.2322612075444036 -0.1236057976628157
  0.2330300082569889 -0.1220315749981262 -0.1030949190297108 0.02456354235663605 -0.1035320235778966 0.04673392216135101 -0.5476953935448116 -0.7426743227765626
  -0.102428923007833 0.02417487867211568 0.2322781491279144 -0.1236143475949745 -0.5477871594038293 -0.7428040900867736 -0.1048276666505804 0.04556647286220186
5690000000 -0.1179008391409578 0.0266948075618757 -0.4043566848518337 -0.8307799448415092 0.2328300870315297 -0.122432468044571 -0.1024879318338248 0.02443236139751055
  -0.4043565789763102 -0.8307797449410346 -0.1163001082835199 0.03047846214793548 -0.1031709963832662 0.02482724574603483 0.2320339802909721 -0.1239958891726819
  0.2328065021153095 -0.1224206090518378 -0.103160827485713 0.02482509406044579 -0.1034320584423672 0.04688792329655411 -0.5490789071623513 -0.7416206237497555
  -0.1024955375799621 0.02443409691548679 0.2320509058636308 -0.1240044680683187 -0.5491709148937259 -0.7417502143082767 -0.1047297975155477 0.04572309458557481
5695000000 -0.1178779442177997 0.02687835508383208 -0.4057720502992611 -0.8300570250565394 0.2326055027581806 -0.1228209144455492 -0.1025538822941824 0.02469198362819467
  -0.4057719439930573 -0.8300568251831831 -0.1162690270840106 0.03066484464327409 -0.1032362432916123 0.02508924471813287 0.2318056907293841 -0.1243853475045739
  0.2325819393824679 -0.12280901651214 -0.1032260674984131 0.0250870675178304 -0.1033316894362758 0.04704162812988139 -0.5504604903992907 -0.7405644466248883
  -0.1025614932895293 0.02469373827539156 0.2318226002120915 -0.1243939553199168 -0.5505527396786584 -0.7406938599986238 -0.1046315133854584 0.04587943132892002
5700000000 -0.1178546300226025 0.02706188879484705 -0.4071861817252512 -0.829331812742118 0.2323798635733409 -0.1232087311340672 -0.1026191722425733 0.02495202719704621
  -0.4071860749881288 -0.8293316128967593 -0.1162375117611346 0.03085119463082028 -0.103300819989755 0.02535166369924827 0.2315763406547968 -0.1247741695853535
  0.2323563218437763 -0.1231967943212557 -0.1032906373660558 0.02534946094209261 -0.1032309173746443 0.04719503563079799 -0.551840139316864 -0.7395057945165575
  -0.1026267884391645 0.02495380100580788 0.231593233968576 -0.1247828062764026 -0.5519326298191697 -0.7396350302729423 -0.1045328150132857 0.04603548203405923
5705000000 -0.1178308964326477 0.02724540781119958 -0.408599075966816 -0.8286043097829956 0.2321531712715677 -0.1235959150565631 -0.1026837999865831 0.02521249035198748
  -0.4085989687985402 -0.8286041099665148 -0.1162055622427214 0.03103751115947077 -0.103364724780802 0.02561450089624622 0.2313459318714515 -0.1251623523464099
  0.2321296512936161 -0.1235839394259291 -0.1033545353919177 0.02561227254027236 -0.103129743074452 0.04734814477027735 -0.5532178499791962 -0.7384446705431769
  -0.1026914213363249 0.02521428335453309 0.2313628089374487 -0.1251710178689376 -0.5533105813786912 -0.7385737282501804 -0.1044337031540202 0.04619124564401825
5710000000 -0.1178067433259822 0.02742891124738984 -0.4100107298628048 -0.8278745180657414 0.2319254276564827 -0.1239824631640285 -0.1027477638386451 0.02547337133477446
  -0.4100106222631412 -0.8278743182790185 -0.1161731784577044 0.03122379327649747 -0.1034279559729132 0.02587775450974191 0.2311144661926696 -0.1255498927236915
  0.2319019295354332 -0.1239704487774577 -0.1034177598843267 0.02587550051316054 -0.1030281673546409 0.04750095452079916 -0.5545936184532824 -0.7373810778269951
  -0.1027553902933158 0.02547518356319748 0.2311313269321552 -0.1255585870332427 -0.5546865904235279 -0.7375099570531188 -0.1043341785646776 0.04634672110302526
5715000000 -0.1177821705814333 0.02761239821612831 -0.4114211402538858 -0.8271424394787429 0.2316966345407675 -0.1243683724120374 -0.1028110621160625 0.02573466838100867
  -0.411421032222602 -0.8271422397226605 -0.1161403603361358 0.03141004002753831 -0.1034905118793245 0.02614142273411501 0.230881945440847 -0.1259367876577346
  0.2316731583817317 -0.124356319331721 -0.1034803091566865 0.02613914305531242 -0.1029261910361175 0.04765346385634754 -0.5559674408089929 -0.7363150194940933
  -0.1028186936273128 0.02573649986727664 0.2308987897752148 -0.1259455107096271 -0.5560606530228579 -0.7364437198083728 -0.1042342420043016 0.04650190735650898
5720000000 -0.1177571780786228 0.02779586782832498 -0.4128303039825393 -0.8264080759122104 0.2314667937461587 -0.1247536397607773 -0.1028736931410291 0.02599637972015155
  -0.412830195519403 -0.8264078761876514 -0.1161071078092002 0.03159625045658883 -0.1035523908183695 0.02640550375752307 0.2306483714474486 -0.1263230340936959
  0.2314433396540698 -0.1247415480492119 -0.1035421815274977 0.02640319835506258 -0.1028238149417577 0.04780567175240916 -0.5573393131190481 -0.7352464986743988
  -0.1028813296603826 0.02599823049610542 0.2306651992982184 -0.1263317858430201 -0.5574327652487123 -0.7353750196464039 -0.1041338942339702 0.04665680335109621
5725000000 -0.1177317656979815 0.02797931919307868 -0.4142382178930363 -0.8256714292581765 0.2312359071034411 -0.1251382621750796 -0.1029356552406505 0.02625850357553613
  -0.4142381089978189 -0.8256712295660246 -0.1160734208092288 0.03178242360599304 -0.1036135911135014 0.02666999576191556 0.2304137460530037 -0.1267086289813791
  0.231212475183054 -0.1251261318950663 -0.1036033753203807 0.02666766459453752 -0.1027210398964093 0.04795757718597107 -0.5587092314590183 -0.7341755185016903
  -0.1029432967195028 0.02626037367288998 0.2304305573418206 -0.1267174093829998 -0.558802923175971 -0.7343038597015257 -0.1040331360168012 0.04681140803461062
5730000000 -0.1177059333207643 0.02816275141766669 -0.4156448788314359 -0.8249325014104989 0.2310039764524437 -0.1255222366244514 -0.1029969467469651 0.02652103816438079
  -0.4156447695039082 -0.8249323017516386 -0.1160392992697141 0.03196855851643517 -0.1036741110933161 0.02693489692304883 0.2301780711070996 -0.1270935692752692
  0.2309805668083331 -0.1255100678390949 -0.103663888864097 0.02693253994967153 -0.1026178667268964 0.04810917913551938 -0.5600771919073085 -0.7331020821136045
  -0.1030045931365861 0.02652292761472156 0.2301948657557355 -0.1271023782838245 -0.5601711228823507 -0.733230243111912 -0.1039319681179568 0.04696572035607092
5735000000 -0.1176796808290649 0.02834616360753391 -0.4170502836455628 -0.8241912942648612 0.230771003642033 -0.1259055600831039 -0.1030575659969657 0.02678398169780294
  -0.4170501738854995 -0.8241910946401787 -0.1160047431253237 0.03215465422693094 -0.1037339490915728 0.02720020541049914 0.2299413484683766 -0.1274778519345609
  0.2307476163785928 -0.125893352855813 -0.1037237204925718 0.0271978225902191 -0.1025142962620226 0.04826047658103706 -0.5614431905451509 -0.7320261926516468
  -0.1030652172484987 0.02678589053258932 0.2299581263987304 -0.1274866895044631 -0.561537360448396 -0.7321541730196029 -0.1038303913046498 0.04711973926568925
5740000000 -0.1176530081058304 0.02852955486628295 -0.4184544291850039 -0.8234478097187756 0.2305369905301072 -0.1262882295299847 -0.1031175113326207 0.02704733238083122
  -0.4184543189921809 -0.8234476101291567 -0.1159697523119153 0.03234070977481929 -0.1037931034472174 0.02746591938767779 0.229703580004522 -0.1278614739231889
  0.2305136257515498 -0.1262759839244712 -0.1037828685449165 0.02746351067977115 -0.1024103293325745 0.0484114685040023 -0.5628072234565964 -0.730947853261196
  -0.1031251673970825 0.02704926063139385 0.2297203411386202 -0.1278703400086244 -0.5629016319574673 -0.7310756525705161 -0.1037284063461483 0.0472734637148696
5745000000 -0.1176259150348774 0.0287129242956634 -0.4198573123010896 -0.8227020496715831 0.2303019389835907 -0.1266702419488072 -0.1031767811008944 0.02731108841241999
  -0.419857201675284 -0.8227018501179161 -0.1159343267665511 0.03252672419575401 -0.1038515725044047 0.02773203701184532 0.2294647675922636 -0.1282444322098589
  0.2302785967939456 -0.1266579580290862 -0.1038413313654499 0.0277296023757674 -0.1023059667713267 0.0485621538873875 -0.5641692867284999 -0.7298670670915145
  -0.1031844419291772 0.02731303610996093 0.2294815118522615 -0.1282533267647892 -0.5642639334957329 -0.729994684914451 -0.1036260140137823 0.04742689265620632
5750000000 -0.1175984015009059 0.02889627099556179 -0.4212589298468826 -0.8219540160244564 0.2300658508784275 -0.1270515943280839 -0.1032353736537691 0.02757524798546191
  -0.4212588187878723 -0.8219538165076299 -0.1158984664275129 0.03271269652369526 -0.1039093546125191 0.02799855643412565 0.2292249131173647 -0.1286267237680785
  0.2300425313815408 -0.127039272158472 -0.1038991073037207 0.02799609582951219 -0.1022012094130443 0.04871253171565681 -0.5655293764505133 -0.7287838372957566
  -0.1032430391966388 0.02757721516105362 0.2292416404255464 -0.1286356467462395 -0.5656242611521598 -0.7289112732050987 -0.1035232150809483 0.04758002504348288
5755000000 -0.117570467389516 0.0290795940639914 -0.4226592786771635 -0.821203710680404 0.2298287280995747 -0.1274322836611539 -0.1032932873482652 0.02783980928680175
  -0.4226591671847294 -0.8212035112013069 -0.1158621712343166 0.03289862579090167 -0.1039664481261986 0.02826547579952089 0.2289840184746168 -0.1290083455761864
  0.2298054313991081 -0.1274199233062702 -0.1039561947145306 0.0282629891861887 -0.1020960580944874 0.04886260097476522 -0.5668874887150767 -0.7276981670309728
  -0.1033009575563635 0.02784179597138707 0.229000728753397 -0.1290172969310904 -0.5669826110184994 -0.72782542060005 -0.1034200103231158 0.04773285983167022
5760000000 -0.1175421125872226 0.02926289259708244 -0.4240583556484225 -0.8204511355442689 0.2295905725409967 -0.1278123069462158 -0.1033505205464634 0.02810477049724982
  -0.4240582437223464 -0.8204509361037915 -0.1158254411277274 0.03308451102792229 -0.1040228514053543 0.02853279324692612 0.2287420855678343 -0.1293892946173855
  0.2295672987404269 -0.1277999084709798 -0.104012591957954 0.0285302805848733 -0.1019905136544157 0.04901236065215716 -0.5682436196174071 -0.726610059458122
  -0.1033581953703069 0.02810677672164176 0.2287587787397573 -0.1293982743023188 -0.5683389791892852 -0.7267371302608039 -0.103316400517832 0.04788539597692597
5765000000 -0.1175133369814712 0.02944616568907202 -0.4254561576188435 -0.8196962925227321 0.2293513861056586 -0.1281916611863582 -0.1034070716155239 0.02837012979159574
  -0.4254560452589094 -0.8196960931217655 -0.1157882760497749 0.03327035126358859 -0.1040785628151946 0.02880050690914345 0.228499116309847 -0.1297695678797701
  0.2293281353082757 -0.1281792246559914 -0.1040682973993619 0.02879796815855035 -0.101884576933591 0.04916180973676479 -0.5695977652554886 -0.7255195177420796
  -0.1034147510055054 0.02837215558647638 0.2285157922975889 -0.1297785758477967 -0.5696933617618155 -0.7256464053527751 -0.103212386444729 0.04803763243659299
5770000000 -0.1174841404606536 0.02962941243229407 -0.426852681448291 -0.8189391835243149 0.2291111707055187 -0.1285703433895911 -0.1034629389277093 0.02863588533862181
  -0.426852568654283 -0.8189389841637528 -0.1157506759437684 0.03345614552500641 -0.1041335807262459 0.02906861491289715 0.2282551126224943 -0.1301491623563601
  0.2290879430144258 -0.1285578688696141 -0.1041233094094427 0.02906605003412697 -0.1017782487747836 0.04931094721900721 -0.5709499217300635 -0.7244265450516432
  -0.1034706228340979 0.02863793073454276 0.228271771348863 -0.1301581985603191 -0.5710457548361486 -0.7245532490453025 -0.1031079688855287 0.04818956816919819
5775000000 -0.1174545229141243 0.02981263191717005 -0.4282479239982985 -0.8181798104593824 0.2288699282615228 -0.1289483505688754 -0.1035181208604044 0.0289020353011175
  -0.4282478107700043 -0.8181796111401168 -0.115712640754312 0.03364189283754846 -0.1041879035143752 0.02933711537884846 0.2280100764366179 -0.1305280750451296
  0.2288467237796351 -0.1289358381251095 -0.1041776263642245 0.02933452433244728 -0.1016715300227739 0.04945977209078851 -0.5723000851446222 -0.7233311445595429
  -0.1035258092333454 0.02890410032849809 0.2280267178245539 -0.1305371394376377 -0.5723961545150914 -0.7234576645116567 -0.1030031486240489 0.048341202134452
5780000000 -0.1174244842322159 0.02999582323219903 -0.4296418821320552 -0.8174181752401449 0.2286276607035961 -0.1293256797421554 -0.1035726157961374 0.02916857783589204
  -0.4296417684692634 -0.8174179759630704 -0.1156741704273203 0.03382759222484651 -0.1042415295608116 0.02960600642161056 0.2277640096920557 -0.1309063029490392
  0.2286044795336399 -0.1293131294407211 -0.104231246645098 0.02960338916830898 -0.1015644215243586 0.04960828334549758 -0.573648251605397 -0.7222333194424502
  -0.1035803085856526 0.02917066252502003 0.2277806336646324 -0.1309153954824885 -0.5737445569041898 -0.7223596549290536 -0.1028979264462095 0.048492533293247
5785000000 -0.1173940243062551 0.03017898546394817 -0.4310345527143941 -0.8166542797806585 0.2283843699706368 -0.1297023279323894 -0.1036264221226003 0.02943551109378918
  -0.4310344386168958 -0.8166540805466695 -0.115635264910034 0.03401324270878378 -0.1042944572521674 0.02987528614976336 0.2275169143376333 -0.1312838430760643
  0.2283612122151482 -0.1296897398397059 -0.104284168638836 0.02987264265047615 -0.1014569241283543 0.04975647997800601 -0.5749944172213425 -0.7211330728809869
  -0.1036341192785896 0.02943761547482043 0.2275335208180585 -0.1312929637026261 -0.5750909581117205 -0.7212592234786542 -0.1027923031400384 0.04864356060765684
5790000000 -0.11736314302858 0.03036211769704338 -0.4324259326117787 -0.8158881259968314 0.2281400580105087 -0.1300782921675807 -0.1036795382326708 0.02970283321970133
  -0.4324258180793658 -0.815887926806824 -0.1155959241510351 0.03419884330948766 -0.1043466849804615 0.03014495266586891 0.2272687923311585 -0.1316606924392295
  0.2281169237718339 -0.1300656663503658 -0.1043363907376167 0.03014228288169576 -0.1013490386856018 0.04990436098466802 -0.5763385781041402 -0.7200304080597305
  -0.1036872397049114 0.02970495732265824 0.2272853812427743 -0.1316698411108514 -0.576435354248679 -0.7201563733455828 -0.102686279495678 0.04879428304093665
5795000000 -0.1173318402925551 0.03054521901416006 -0.4338160186922914 -0.8151197158064231 0.2278947267800338 -0.1304535694808087 -0.1037319625244323 0.02997054235258277
  -0.433815903724757 -0.8151195166612946 -0.1155561481002635 0.03438439304532221 -0.1043982111431404 0.03041500406648591 0.2270196456394128 -0.1320368480566371
  0.2278716161603267 -0.1304409060060783 -0.1043879113390464 0.03041230795871247 -0.1012407660489704 0.05005192536331862 -0.5776807303681767 -0.7189253281672281
  -0.1037396682625791 0.02997268620735466 0.2270362169056966 -0.1320460247250445 -0.5777777414287739 -0.7190511077189287 -0.1025798563053903 0.04894469955752079
5800000000 -0.117300115992589 0.03072828849601369 -0.4352048078256189 -0.8143490511290503 0.2276483782449844 -0.1308281569102606 -0.1037836934011946 0.0302386366254644
  -0.4352046924227573 -0.8143488520296992 -0.115515936709032 0.03456989093288085 -0.1044490341430983 0.03068543844218526 0.2267694762381448 -0.1324123069514986
  0.2276252913462068 -0.1308154558453271 -0.104438728846179 0.03068271597228382 -0.101132107073363 0.05019917211327366 -0.5790208701305444 -0.7178178363960017
  -0.1037914033547813 0.0302408002618069 0.22678602978271 -0.1324215115681958 -0.579118115768413 -0.7179434297917598 -0.1024730343635647 0.04909480912302346
5805000000 -0.1172679700241503 0.0309113252213508 -0.4365922968830384 -0.813576133886188 0.2274010143800758 -0.1312020514992616 -0.1038347292715154 0.03050711416546733
  -0.436592181044648 -0.8135759348335116 -0.1154752899300431 0.03475533598697931 -0.1044991523887026 0.03095625387756576 0.2265182861120618 -0.1327870661521658
  0.2273779513039958 -0.1311893129117354 -0.104488841667539 0.03095350500719488 -0.1010230626157197 0.05034610023532803 -0.580358993511024 -0.7167079359425603
  -0.1038424433899539 0.03050929761300181 0.2265348218586583 -0.1327962986684356 -0.580456473386699 -0.7168333427611285 -0.1023658144667226 0.0492446107042377
5810000000 -0.1172354022837848 0.03109432826693998 -0.4379784827374102 -0.8128009660011712 0.2271526371689583 -0.1315752502963079 -0.1038850685492198 0.03077597309381761
  -0.4379783664632882 -0.8128007669960701 -0.1154342077174047 0.03494072722064859 -0.1045485642938114 0.0312274484512687 0.2262660772548223 -0.1331611226921626
  0.2271295980171499 -0.131562474254095 -0.1045382482171432 0.03122467314227467 -0.1009136335350231 0.05049270873175585 -0.5816950966320804 -0.715595630007404
  -0.1038927867818016 0.03077817638203104 0.2262825951273378 -0.1331703830590664 -0.5817928104054163 -0.715720849828081 -0.1022581974135251 0.04939410326913474
5815000000 -0.1172024126691319 0.031277296707563 -0.4393633622631584 -0.8120235493992012 0.2269032486042094 -0.1319477503550957 -0.1039347096534231 0.0310452115258606
  -0.4393632455531065 -0.8120233504425747 -0.1153926900266462 0.03512606364512791 -0.1045972682777979 0.03149902023599346 0.226012851669029 -0.1335344736102145
  0.2268802334780513 -0.1319349369263978 -0.1045869469145219 0.03149621845041099 -0.1008038206923029 0.05063899660630917 -0.5830291756188499 -0.7144809217950401
  -0.103942431949319 0.0310474346841045 0.2260293515914887 -0.1335437617785933 -0.5831271229490212 -0.7146059541976738 -0.1021501840047794 0.04954328578686436
5820000000 -0.117169001078942 0.03146022961600598 -0.4407469323362649 -0.8112438860073444 0.2266528506873252 -0.1323195487345543 -0.1039836510085487 0.03131482757107428
  -0.4407468151900838 -0.8112436871000943 -0.1153507368147352 0.03531134426985795 -0.1046452627655716 0.03177096729851406 0.2257586113662193 -0.1339071159502809
  0.2266298596880003 -0.1323066979878693 -0.1046349361847403 0.0317681389985659 -0.1006936249506399 0.05078496286421773 -0.5843612265991361 -0.7133638145139863
  -0.103991377316809 0.03131707062856508 0.2257750932627872 -0.1339164318707557 -0.5844594071446402 -0.7134886590789685 -0.1020417750434434 0.04969215722775376
5825000000 -0.1171351674130937 0.03164312606305061 -0.4421291898342499 -0.8104619777545397 0.2264014454287126 -0.1326906424988772 -0.1040318910443507 0.03158481933308505
  -0.4421290722517432 -0.8104617788975687 -0.1153083480400939 0.03549656810247405 -0.1046925461875975 0.0320432876996929 0.2255033583668585 -0.1342790467615869
  0.2263784786572066 -0.1326777545029971 -0.1046822144584212 0.03204043284779153 -0.1005830471751719 0.05093060651218825 -0.5856912457033958 -0.712244311376784
  -0.1040396213139068 0.03158708231890305 0.2255198221618377 -0.1342883903845576 -0.5857896591220491 -0.7123689676850561 -0.1019329713346348 0.04984071656330799
5830000000 -0.1171009115726108 0.03182598511746574 -0.4435101316361632 -0.8096778265715997 0.2261490348476806 -0.133061028717553 -0.1040794281959341 0.0318551849096813
  -0.4435100136171367 -0.8096776277658106 -0.1152655236626155 0.03568173414879974 -0.1047391169799213 0.03231597949449825 0.2252470947003304 -0.1346502630986528
  0.2261260924047814 -0.1330481035415644 -0.1047287801717653 0.0323130980532457 -0.1004720882330971 0.05107592655840404 -0.5870192290647319 -0.7111224156000054
  -0.1040871623755973 0.03185746785277038 0.2252635403181643 -0.1346596343743003 -0.5871178750136761 -0.711246883233057 -0.1018237736856356 0.04998896276620984
5835000000 -0.1170662334596794 0.03200880584599882 -0.4448897546225711 -0.8088914343912124 0.2258956209724318 -0.133430704465397 -0.1041262609037752 0.03212592239282816
  -0.4448896361668321 -0.8088912356375096 -0.1152222636436805 0.03586684141284 -0.1047849735841885 0.03258904073201849 0.2249898224049293 -0.1350207620213254
  0.2258727029587287 -0.1334177421786803 -0.104774631766573 0.03258613266420753 -0.1003607489936808 0.05122092201252477 -0.5883451728188838 -0.7099981304042656
  -0.104133998942238 0.03212822532199555 0.225006249770202 -0.1350301608996115 -0.5884440509545822 -0.7101224089441359 -0.1017141829059003 0.05013689481031933
5840000000 -0.1170311329776661 0.03219158731336757 -0.4462680556755435 -0.8081028031479491 0.2256412058400538 -0.1337996668225826 -0.1041723876137419 0.03239702986868239
  -0.4462679367829011 -0.8081026044472374 -0.1151785679461746 0.03605188889677514 -0.104830114447666 0.03286246945547914 0.2247315435278519 -0.1353905405948118
  0.2256183123559363 -0.1337866674948115 -0.1048197676902662 0.03285953472409329 -0.100249030328258 0.05136559188568595 -0.5896690731042216 -0.70887145901423
  -0.1041801294595783 0.03239935281259799 0.2247479525652888 -0.1353999670254789 -0.5897681830824616 -0.7089955480435073 -0.101604199807061 0.05028451167067429
5845000000 -0.1169956100311349 0.03237432858225172 -0.447645031678641 -0.807311934778263 0.2253857914965102 -0.1341679128746734 -0.104217806777115 0.03266850541760679
  -0.4476449123489046 -0.8073117361314474 -0.1151344365345043 0.03623687560095423 -0.104874538023265 0.03313626370225795 0.224472260125188 -0.1357595958897076
  0.2253629226421671 -0.1341548765758142 -0.104864186395909 0.03313330227047222 -0.1001369331102406 0.05150993519049883 -0.5909909260617333 -0.7077424046586257
  -0.1042255523787802 0.03267084840480275 0.224488650759656 -0.1357690498222799 -0.5910902675376252 -0.7078663037604482 -0.1014938252029354 0.05043181232349054
5850000000 -0.1169596645258657 0.03255702871328495 -0.4490206795169013 -0.8065188312204959 0.2251293799966314 -0.1345354397126544 -0.1042625168506075 0.03294034711418502
  -0.4490205597498833 -0.8065186326284839 -0.1150898693746147 0.03642180052388918 -0.1049182427695604 0.03341042150390117 0.2242119742619112 -0.1361279249820297
  0.2251065358720506 -0.1345223665129652 -0.1049078863422308 0.033407433335083 -0.1000244582151208 0.05165395094105034 -0.5923107278350163 -0.7066109705702515
  -0.1042702661564394 0.03294271017305531 0.2242283464184209 -0.136137406365813 -0.5924103004629964 -0.7067346793283091 -0.1013830599095332 0.05057879574616175
5855000000 -0.1169232963688713 0.03273968676504682 -0.4503949960768278 -0.8057234944148801 0.2248719734041058 -0.1349022444329623 -0.104306516296386 0.03321255302723636
  -0.4503948758723413 -0.8057232958785795 -0.1150448664340062 0.03660666266224843 -0.1049612271508129 0.03368494088613969 0.2239506880118709 -0.1364955249532485
  0.2248491541090725 -0.1348891344029939 -0.104950865993645 0.0336819259438488 -0.09991160652047741 0.05179763815290289 -0.5936284745702728 -0.7054771599859847
  -0.1043142692546047 0.03321493618603648 0.2239670416155756 -0.1365050337373302 -0.5937282780041007 -0.7056006779845196 -0.1012719047450624 0.05072546091725993
5860000000 -0.1168865054684158 0.03292230179405493 -0.4517679782463759 -0.8049259263035445 0.2246135737914702 -0.1352683241375199 -0.104349803582091 0.03348512121983097
  -0.4517678576042373 -0.8049257278238627 -0.1149994276817519 0.03679146101085124 -0.1050034896369903 0.03395981986890458 0.2236884034577824 -0.1368623928903169
  0.2245907794255665 -0.1352551773481128 -0.104993123820272 0.03395677811689484 -0.0997983789059794 0.05194099584309432 -0.5949441624162949 -0.704340976146797
  -0.1043575601407997 0.03348752450667721 0.2237047384339794 -0.1368719290235675 -0.5950441963090578 -0.7044643029706018 -0.1011603605299373 0.0508718068165363
5865000000 -0.1168492917340328 0.03310487285475701 -0.4531396229149414 -0.8041261288305148 0.2243541832401004 -0.1356336759337647 -0.1043923771808565 0.03375804974930365
  -0.4531395018349672 -0.8041259304083622 -0.1149535530885147 0.03697619456266173 -0.1050450287037909 0.03423505646634455 0.2234251226912177 -0.1372285258857034
  0.2243314139027046 -0.1356204924560512 -0.1050346582979614 0.03423198786856282 -0.09968477625339306 0.05208402303013831 -0.5962577875244622 -0.7032024222977584
  -0.104400137288042 0.03376047319217346 0.2234414389653493 -0.1372380893167764 -0.5963580515285714 -0.7033255575321811 -0.1010484280867839 0.05101783242492117
5870000000 -0.1168116550765431 0.03328739899952364 -0.4545099269733476 -0.8033241039417207 0.2240938038402016 -0.1359982969346821 -0.1044342355713316 0.03403133666727096
  -0.4545098054553565 -0.8033239055780069 -0.1149072426265648 0.0371608623087832 -0.1050858428326603 0.0345106486868408 0.2231608478125961 -0.1375939210374242
  0.2240710596304865 -0.1359850768400846 -0.1050754679083101 0.03450755320742892 -0.09957079944658578 0.05222671873402425 -0.5975693460487277 -0.702061501688053
  -0.1044419991748641 0.03403378029400115 0.2231771453102496 -0.1376035117147558 -0.5976698398159238 -0.7021844449189935 -0.1009361082404484 0.05116353672452498
5875000000 -0.1167735954080738 0.03346987927864023 -0.4558788873138312 -0.8025198535849991 0.2238324376907988 -0.1363621842588379 -0.1044753772377002 0.03430498001964438
  -0.4558787653576433 -0.8025196552806353 -0.1148604962697973 0.03734546323845261 -0.1051259305108165 0.03478659453302405 0.2228955809311746 -0.1379585754490726
  0.2238097187077318 -0.1363489276190672 -0.1051155511386865 0.0347834721363188 -0.09945644937153131 0.05236908197621758 -0.5988788341456144 -0.7009182175709869
  -0.1044831442853335 0.03430744385793183 0.2229118595780838 -0.1379681933208833 -0.5989795573269628 -0.7010409683848988 -0.100823401818003 0.0513089186986388
5880000000 -0.116735112642076 0.03365231274029991 -0.4572465008300298 -0.8017133797100972 0.2235700868997265 -0.136725335030408 -0.1045158006697001 0.03457897784664599
  -0.4572463784354685 -0.8017131814659946 -0.1148133139937498 0.03752999633903496 -0.1051652902312692 0.035062892001791 0.2226293241650377 -0.1383224862298527
  0.2235473932420681 -0.1367120419174644 -0.1051549064822503 0.03505974265232464 -0.09934172691631614 0.05251111177966001 -0.6001862479742023 -0.6997725732039962
  -0.1045235711090733 0.034581461924047 0.2226455838870829 -0.1383321312441455 -0.600287200220098 -0.6998951311878902 -0.1007103096487543 0.05145397733173528
5885000000 -0.1166962066933436 0.03383469843059631 -0.4586127644169734 -0.8009046842686762 0.2233067535836189 -0.1370877463792111 -0.1045555043626456 0.03485332818282446
  -0.4586126415838611 -0.8009044860857486 -0.1147656957756196 0.03771446059601809 -0.1052039204928406 0.03533953908432104 0.2223620796410887 -0.138685650494609
  0.2232840853499221 -0.137074416865383 -0.1051935324379744 0.03533636274682207 -0.09922663297114401 0.05265280716877043 -0.6014915836961244 -0.6986245718486622
  -0.1045632781412823 0.03485583252675372 0.2223783203642976 -0.1386953225991727 -0.601592764656289 -0.6987469365901028 -0.1005968325642484 0.05159871160946954
5890000000 -0.1166568774780319 0.03401703539351613 -0.4599776749710636 -0.8000937692143184 0.2230424398678992 -0.1374494154407402 -0.1045944868174462 0.03512802905706908
  -0.4599775516992277 -0.8000935710934793 -0.1147176415942823 0.03789885499300735 -0.1052418198001888 0.03561653376609196 0.2220938494950378 -0.1390480653638584
  0.2230197971565088 -0.1374360495986049 -0.1052314275106643 0.03561333040548551 -0.09911116842834161 0.05279416716944437 -0.6027948374755525 -0.6974742167707202
  -0.1046022638827553 0.03513055369480039 0.2221100711455864 -0.1390577645062664 -0.6028962467990381 -0.697596387857828 -0.1004829713982809 0.05174312051867992
5895000000 -0.1166171249136767 0.03419932267093229 -0.4613412293900697 -0.7992806365025292 0.2227771478867707 -0.1378103393561959 -0.1046327465406267 0.03540307849262655
  -0.4613411056793355 -0.7992804384446919 -0.1146691514303092 0.03808317851172054 -0.1052789866638258 0.03589387402689754 0.2218246358713938 -0.1394097279638233
  0.2227545307958214 -0.1377969372586164 -0.1052685902109809 0.03589064360830589 -0.0989953341823635 0.0529351908090558 -0.6040960054791957 -0.6963215112400694
  -0.1046405268399025 0.03540562345129106 0.2218408383756059 -0.1394194540914335 -0.6041976428143827 -0.6964434882615222 -0.1003687269869012 0.05188720304738927
5900000000 -0.1165769489192126 0.03438155930259712 -0.4627034245731104 -0.7984652880907414 0.2225108797832039 -0.138170515272515 -0.1046702820443477 0.0356784745071149
  -0.4627033004233077 -0.7984650900968224 -0.1146202252659854 0.03826743013198306 -0.1053154196001407 0.03617155784086364 0.2215544409234515 -0.1397706354264615
  0.2224882884106207 -0.138157076992642 -0.1053050190554614 0.03616830032960758 -0.09887913112979892 0.05307587711645682 -0.6053950838762882 -0.6951664585307837
  -0.1046780655247715 0.03568103981370163 0.2215706242078017 -0.139780388486418 -0.6054969488708869 -0.6952882410758185 -0.1002541001684216 0.05203095818480618
5905000000 -0.1165363494149927 0.03456374432613524 -0.4640642574206404 -0.7976477259383211 0.2222436377089276 -0.1385299403424053 -0.1047070918464265 0.03595421511254002
  -0.4640641328316009 -0.797647528009236 -0.1145708630853279 0.03845160883172261 -0.1053511171314194 0.03644958317646574 0.2212832668132838 -0.1401307848894981
  0.2222210721524244 -0.1385164659536756 -0.1053407125665389 0.0364462985380638 -0.09876256016937594 0.05321622512197918 -0.6066920688385811 -0.6940090619211255
  -0.1047148784550651 0.03595680079389502 0.2212994308043954 -0.1401405648287298 -0.606794161139634 -0.6941306495795342 -0.1001390917834243 0.05217438492132614
5910000000 -0.116495326322807 0.03474587677703734 -0.4654237248344455 -0.7968279520065714 0.2219754238244175 -0.1388886117243763 -0.1047431744703556 0.03623029831531115
  -0.4654235998060003 -0.7968277541432368 -0.1145210648741037 0.03863571358696514 -0.1053860777858667 0.03672794799654489 0.2210111157117287 -0.1404901734964576
  0.2219528841814963 -0.1388751013005116 -0.105375669272564 0.03672463619671475 -0.09864562220196765 0.05335623385743409 -0.607986956540337 -0.6928493246935518
  -0.1047509641541631 0.03623290439813702 0.2210272603363768 -0.1404999802616806 -0.6080892757942139 -0.6929707170556884 -0.100023702674768 0.05231748224853281
5915000000 -0.116453879565902 0.03492795568865317 -0.466781823717618 -0.7960059682587375 0.2217062402988856 -0.1392465265827701 -0.1047785284453238 0.03650672211625546
  -0.4667816982496016 -0.7960057704620714 -0.1144708306198486 0.03881974337182954 -0.1054203000976255 0.03700665025832544 0.2207379897983796 -0.1408487983966955
  0.2216837266668348 -0.1392329801977777 -0.1054098877078266 0.03700331126298444 -0.09852831813059822 0.05349590235611425 -0.609279743158318 -0.6916872501347309
  -0.1047863211511414 0.03650934862711163 0.2207541149834903 -0.1408586319344124 -0.609382289010724 -0.6918084467915053 -0.09990793368759646 0.05246024915919993
5920000000 -0.116412009069 0.03510998009218572 -0.4681385509745562 -0.7951817766600101 0.221436089310268 -0.139603682087795 -0.1048131523062362 0.0367834845106356
  -0.4681384250668035 -0.7951815789309322 -0.1144201603118846 0.0390036971585238 -0.1054537826067997 0.0372856879134314 0.2204638912615749 -0.141206656745429
  0.2214136017861632 -0.1395900998159663 -0.1054433664125758 0.03728232168869705 -0.09841064886044799 0.05363522965279397 -0.6105704248717816 -0.6905228415355495
  -0.1048209479807929 0.03678613147593689 0.2204799969342259 -0.1412165170019296 -0.610673196967751 -0.6906438420784342 -0.09979178566934456 0.0526026846472918
5925000000 -0.1163697147583185 0.03529194901668439 -0.4694939035109411 -0.7943553791775344 0.2211649730452145 -0.1399600754155562 -0.1048470445937332 0.03706058348816344
  -0.4694937771632913 -0.7943551815169623 -0.1143690539413396 0.03918757391734014 -0.1054865238594732 0.03756505890790435 0.2201888222983847 -0.1415637457037707
  0.2211425117259161 -0.1399464573314665 -0.1054761039330397 0.0375616654200944 -0.09829261529885928 0.05377421478373084 -0.61185899786247 -0.6893561021911262
  -0.1048548431836464 0.03706325093418023 0.2202049083858071 -0.1415736326251318 -0.6119619958463707 -0.689476906212154 -0.09967525946974697 0.05274478770796649
5930000000 -0.1163269965615899 0.0354738614890393 -0.4708478782337321 -0.793526777780408 0.2208928936990771 -0.140315703748088 -0.1048802038542123 0.03733801703301728
  -0.470847751446024 -0.7935265801892631 -0.114317511501165 0.03937137261665108 -0.105518522407732 0.03784476118222013 0.2199127851146022 -0.1419200624387581
  0.2208704586812305 -0.1403020499265955 -0.1055080988214493 0.03784134039785371 -0.09817421835534242 0.05391285678666634 -0.6131454583146048 -0.6881870354008212
  -0.1048880053059875 0.03734070498587493 0.2199288515441801 -0.1419299759708444 -0.6132486818301385 -0.6883076424925854 -0.09955835594084546 0.05288655733757621
5935000000 -0.1162838544080808 0.03565571653397512 -0.4722004720511507 -0.7926959744396933 0.220619853475898 -0.1406705642733852 -0.1049126286398463 0.0376157831238572
  -0.4722003448232245 -0.7926957769188969 -0.1142655329861548 0.0395550922229054 -0.1055497768096834 0.03812479267130589 0.2196357819247305 -0.1422756041233862
  0.2205974448559317 -0.1406568747896315 -0.1055393496360554 0.03812134455710434 -0.09805545894158132 0.05405115470082774 -0.614429802414877 -0.6870156444682507
  -0.1049204328998778 0.03761849160953597 0.219651828624002 -0.1422855442118515 -0.6145332511050781 -0.6871360542239069 -0.09944107593699571 0.05302799253367012
5940000000 -0.116240288228612 0.03583751317404512 -0.4735516818726657 -0.791862971128419 0.220345854588398 -0.1410246541854363 -0.1049443175086036 0.037893879733841
  -0.4735515542043648 -0.7918627736788921 -0.1142131183929646 0.03973873170062384 -0.1055802856294789 0.03840515130455787 0.219357814951971 -0.1426303679366398
  0.2203234724625235 -0.1410109291148447 -0.1055698549411524 0.03840167582744406 -0.09793633797143943 0.05418910756692849 -0.6157120263524406 -0.6858419327012943
  -0.1049521245231751 0.03789660877817498 0.2193738418486291 -0.1426403345269255 -0.6158156998596769 -0.6859621447145616 -0.09932342031487565 0.05316909229499557
5945000000 -0.1161962979555783 0.0360192504296257 -0.4749015046089863 -0.7910277698215841 0.2200708992579645 -0.141377970684254 -0.1049752690242678 0.03817230483064019
  -0.4749013765001547 -0.7910275724442498 -0.1141602677201296 0.03992229001239576 -0.1056100474373318 0.03868583500585882 0.2190788864282129 -0.1429843510635251
  0.2200485437221754 -0.1413642101025294 -0.1055996133070965 0.0386823321329588 -0.09781685636096603 0.05432671442717075 -0.6169921263189053 -0.6846659034121115
  -0.1049830787395536 0.03817505445931768 0.219094893450106 -0.1429943441008621 -0.6170960242848794 -0.6847859172772717 -0.09920538993349279 0.05330985562150049
5950000000 -0.1161518835229689 0.03620092731891061 -0.4762499371720437 -0.7901903724961672 0.2197949897146395 -0.1417305109759081 -0.1050054817564592 0.03845105637645682
  -0.4762498086225282 -0.7901901751919488 -0.114106980968085 0.04010576611887513 -0.1056390608095417 0.03896684169359526 0.21879899859402 -0.1433375506950995
  0.21977266086471 -0.1417167149590356 -0.1056286233103286 0.03896331139223835 -0.09769701502840142 0.05446397432524594 -0.6182700985083253 -0.6834875599171497
  -0.1050132941185228 0.03845382661501894 0.2188149856691523 -0.1433475701245085 -0.6183742205740758 -0.6836073752290482 -0.09908698565419194 0.05345028151433574
5955000000 -0.1161070448663864 0.03638254285790547 -0.4775969764749812 -0.7893507811311266 0.2195181281971072 -0.1420822722725569 -0.105034954280652 0.03873013232803819
  -0.4775968474846295 -0.789350583900949 -0.1140532581391833 0.04028915897877684 -0.1056673243285105 0.03924816928067451 0.2185181536986192 -0.1436899640285069
  0.2194958261285921 -0.1420684408968023 -0.1056568835333925 0.0392446115183943 -0.09757681489418374 0.05460088630633705 -0.6195459391171996 -0.6823069055371578
  -0.1050427692354475 0.03873292320187929 0.2185341207551517 -0.1437000097947979 -0.6196502849230988 -0.6824265218912061 -0.0989682083406634 0.053590368975857
5960000000 -0.1160617819230681 0.03656409606042277 -0.4789426194321445 -0.7885089977074109 0.2192403169526816 -0.1424332517924786 -0.1050636851781957 0.03900953063669402
  -0.4789424900008055 -0.7885088005521995 -0.113999099237715 0.0404724675488739 -0.1056948365827668 0.03952981567454376 0.2182363539998885 -0.1440415882670061
  0.2192180417609153 -0.1424193851343882 -0.1056843925649579 0.0395262304190781 -0.09745625688095377 0.05473744941711979 -0.6208196443444559 -0.6811239435971989
  -0.1050715026715691 0.03901234217106139 0.2182523009661396 -0.1440516603147799 -0.6209242135302145 -0.6812433605893711 -0.09884905885894954 0.05373011700962708
5965000000 -0.116016094631906 0.03674558593807631 -0.480286862959061 -0.7876650242079641 0.2189615582372943 -0.1427834467601055 -0.1050916730363347 0.03928924924831342
  -0.4802867330865873 -0.7876648271286433 -0.1139445042699268 0.04065569078399343 -0.1057215961669848 0.03981177877720662 0.2179536017643439 -0.1443924206200042
  0.2189393100173889 -0.1427695448965033 -0.1057111489998377 0.03980816599649838 -0.09733534191356258 0.05487366270576437 -0.6220912103914482 -0.679938677426659
  -0.1050994930140224 0.03929208146830573 0.21796952856879 -0.1444025188936523 -0.622196002596112 -0.6800578946534989 -0.09872953807745349 0.05386952462041868
5970000000 -0.1159699829334667 0.03692701150027647 -0.4816297039724364 -0.7868188626177249 0.2186818543154815 -0.1431328544060528 -0.1051189164482274 0.03956928610337935
  -0.4816295736586807 -0.786818665615223 -0.1138894732440416 0.04083882763701391 -0.1057476016820048 0.04009405648524115 0.217669899267128 -0.1447424583030891
  0.2186596331623271 -0.1431189174140419 -0.1057371514390125 0.04009041614743872 -0.09721407091907648 0.05500952522193804 -0.6233606334619509 -0.6787511103592654
  -0.1051267388558578 0.03957213903394745 0.217685805838404 -0.1447525827467943 -0.6234656483239016 -0.67887012741788 -0.09860964686694736 0.05400859081421695
5975000000 -0.1159234467700124 0.03710837175422523 -0.4829711393901369 -0.7859705149236413 0.2184012074603708 -0.1434814719671531 -0.1051454140129655 0.03984963913698648
  -0.4829710086349532 -0.7859703179988858 -0.1138340061702772 0.04102187705886223 -0.1057728517348523 0.04037664668981789 0.2173852487919959 -0.1450916985380594
  0.2183790134686343 -0.1434674999241148 -0.1057623984896472 0.04037297876327562 -0.09709244482678352 0.05514503601680616 -0.6246279097621446 -0.6775612457330921
  -0.10515323879606 0.03985251280293262 0.2174011350588962 -0.1451018490957952 -0.6247331469191048 -0.6776800622211575 -0.09848938610057838 0.05414731459822159
5980000000 -0.1158764860855211 0.03728966570491137 -0.4843111661311758 -0.7851199831146713 0.2181196199536685 -0.143829296686487 -0.1051711643355948 0.04013030627885743
  -0.4843110349344217 -0.7851197862685891 -0.1137781030608664 0.04120483799851055 -0.1057973449387608 0.04065954727671774 0.2170996526313032 -0.1454401385529572
  0.2180974532177923 -0.1438152896700791 -0.1057868887651129 0.04065585172999687 -0.09697046456819958 0.05528019414303474 -0.6258930355006186 -0.6763690868905764
  -0.1051789914395666 0.04013320070483444 0.217115518522782 -0.1454503151684901 -0.6259984945896447 -0.6764877024063359 -0.09836875665387909 0.05428569498085035
5985000000 -0.115829100825708 0.0374708923551061 -0.4856497811157062 -0.7842672691817891 0.2178370940856465 -0.144176325813416 -0.1051961660271334 0.04041128545335886
  -0.485649649477239 -0.7842670724153102 -0.1137217639300765 0.04138770940297383 -0.105821079913191 0.04094275612634979 0.2168131130859935 -0.1457877755821005
  0.2178149546998482 -0.1441622839015733 -0.1058106208850075 0.04093903292821854 -0.09684813107707518 0.05541499865479257 -0.6271560068883549 -0.6751746371785301
  -0.1052039953972894 0.04041420066387029 0.2168289585311658 -0.1457979781989889 -0.627261687545844 -0.6752930513207969 -0.09824775940477351 0.05442373097174148
5990000000 -0.1157812909380454 0.03765205070535835 -0.4869869812650023 -0.7834123751179928 0.2175536321551285 -0.1445225566036135 -0.1052204177045928 0.04069257457951895
  -0.4869868491846833 -0.7834121784320467 -0.1136649887942284 0.0415704902173071 -0.1058440552838495 0.04122627111376991 0.2165256324655841 -0.146134606866114
  0.2175315202134002 -0.1445084798745465 -0.1058335934751763 0.04122252023320411 -0.09672544528940015 0.05554944860775297 -0.628416820138727 -0.6739778999481548
  -0.1052282492861334 0.0406955105989185 0.2165414573937262 -0.1461448354277091 -0.6285227220004156 -0.6740961123163088 -0.09812639523358535 0.05456142158175663
5995000000 -0.1157330563717841 0.03783313975399069 -0.4883227635014524 -0.7825553029183092 0.2172692364694774 -0.1448679863190972 -0.1052439179909958 0.04097417157104297
  -0.4883226309791423 -0.7825551063138275 -0.1136077776717173 0.04175317938460314 -0.1058662696827125 0.04151009010869836 0.2162372130881534 -0.1464806296519608
  0.2172471520655838 -0.1448538748512923 -0.1058558051677305 0.04150631151488246 -0.09660240814341196 0.0556835430590967 -0.6296754714674904 -0.6727788785550466
  -0.1052517517290148 0.04097712842353375 0.2162530174287035 -0.1464908841014078 -0.6297815941684541 -0.6728968887490405 -0.09800466502304735 0.05469876582298422
6000000000 -0.1156843970779743 0.038014158497095 -0.489657124748541 -0.7816960545798014 0.2169839093445798 -0.1452126122282612 -0.1052666655153961 0.04125607433633067
  -0.4896569917841037 -0.7816958580577151 -0.1135501305830316 0.04193577584598997 -0.1058877217480421 0.04179421097553827 0.215947857280327 -0.1468258411929762
  0.2169618525720589 -0.1451984661004791 -0.1058772546010686 0.04179040463786489 -0.09647902057960071 0.05581728106751416 -0.6309319570927777 -0.6715775763592194
  -0.1052745013548825 0.04125905204596527 0.2159636409628856 -0.1468361214732133 -0.6310383002674304 -0.6716953839795753 -0.09788256965830691 0.05483576270874243
6005000000 -0.1156353130094867 0.03819510592852871 -0.4909900619308411 -0.7808346321015738 0.2166976531048346 -0.1455564316059078 -0.1052886589128992 0.04153828077849325
  -0.4909899285241419 -0.7808344356628153 -0.1134920475507736 0.04211827854062904 -0.1059084101244092 0.04207863157339402 0.2156575673772647 -0.1471702387488962
  0.2166756240569951 -0.1455422508971839 -0.1058979404198961 0.04207479746146547 -0.09635528354071571 0.05595066169320786 -0.6321862732350891 -0.6703739967251111
  -0.105296496798736 0.04154127936917307 0.2156733303315959 -0.1471805448026557 -0.6322928365171878 -0.6704916013729211 -0.09776011002693691 0.05497241125358238
6010000000 -0.1155858041210335 0.03837598103991063 -0.4923215719739988 -0.7799710374847785 0.2164104700831366 -0.1458994417332804 -0.1053098968246799 0.04182078879536954
  -0.4923214381249045 -0.7799708411302805 -0.1134335285996786 0.0423006864057128 -0.105928333462712 0.04236334975608955 0.2153663457226459 -0.1475138195858925
  0.2163884688530587 -0.1458852265229227 -0.1059178612752469 0.0423594878397177 -0.09623119797177201 0.05608368399789452 -0.6334384161172869 -0.6691681430215974
  -0.1053177367016462 0.0418238082908448 0.2153820878786778 -0.1475241513557018 -0.6335451991399276 -0.669285544298527 -0.09763728701894087 0.05510871047329153
6015000000 -0.1155358703691901 0.03855678282061766 -0.4936516518047222 -0.7791052727326233 0.2161223626208644 -0.1462416398980931 -0.1053303778980027 0.04210359627954401
  -0.4936515175131025 -0.7791050764633191 -0.1133745737566361 0.04248299837646335 -0.1059474904201971 0.04264836337218669 0.2150741946686567 -0.147856580976602
  0.2161003893013976 -0.146227390265683 -0.1059370158245006 0.04264447362139397 -0.09610676482005666 0.05621634704480886 -0.6346883819645923 -0.6679600186220054
  -0.1053382197107726 0.04210663670341244 0.2150899159564813 -0.1478669384047836 -0.6347953843602127 -0.6680772161302931 -0.09751410152676405 0.05524465938489787
6020000000 -0.1154855117124161 0.03873751025778091 -0.4949802983507681 -0.7782373398503774 0.2158333330678642 -0.1465830233945653 -0.1053501007862407 0.04238670111836271
  -0.4949801636164918 -0.7782371436672021 -0.1133151830507092 0.04266521338613011 -0.1059658796604785 0.04293367026500407 0.2147811165759743 -0.1481985202001604
  0.2158113877516276 -0.1465687394199564 -0.1059554027314048 0.04292975265002335 -0.09598198503513557 0.0563486498987054 -0.6359361670045717 -0.6667496269041282
  -0.1053579444793848 0.04238976249407002 0.2147968169258494 -0.1482089032288318 -0.6360433884049521 -0.6668666202465854 -0.09739055444529893 0.05538025700667231
6025000000 -0.1154347281110766 0.03891816233628245 -0.4963075085409306 -0.7773672408453762 0.2155433837824366 -0.1469235895234523 -0.1053690641488949 0.0426701011939505
  -0.4963073733638707 -0.7773670447492662 -0.1132553565131546 0.04284733036598893 -0.1059834998535579 0.04321926827263527 0.2144871138137543 -0.1485396345422326
  0.2155214665618174 -0.1469092712867694 -0.1059730206660946 0.04321532276391134 -0.09585685956885928 0.05648059162586175 -0.6371817674671377 -0.6655369712502365
  -0.1053769096668804 0.04267318354478983 0.2145027931561033 -0.1485500431133074 -0.637289207503399 -0.6656537600302481 -0.09726664667189476 0.05551550235813314
6030000000 -0.1153835195274641 0.03909873803875208 -0.4976332793050253 -0.7764949777270332 0.215252517131322 -0.1472633355920772 -0.1053872666516135 0.04295379438322926
  -0.4976331436850567 -0.7764947817189223 -0.113195094177444 0.04302934824534001 -0.1060003496758458 0.04350515522796818 0.2141921887596153 -0.148879921295045
  0.215230628098474 -0.1472489831737161 -0.1059898683051111 0.04350118179615703 -0.09573138937537018 0.05661217129408139 -0.6384251795845357 -0.6643220550470922
  -0.1053951139388045 0.04295689773234055 0.2142078470250282 -0.1488903553502339 -0.638532837887145 -0.6644386388686174 -0.09714237910636593 0.05565039446004996
6035000000 -0.1153318859258204 0.03927923634556429 -0.4989576075738848 -0.7756205525068398 0.2149607354896844 -0.147602258914363 -0.105404706966211 0.04323777855793368
  -0.4989574715108822 -0.7756203565876665 -0.1131343960792834 0.0432112659515073 -0.1060164278101784 0.04379132895870251 0.2138963437996246 -0.149219377757418
  0.214938874736529 -0.1475878723949904 -0.1060059443314233 0.04378732757467318 -0.09560557541110844 0.05674338797269696 -0.6396663995913451 -0.6631048816859608
  -0.1054125559668689 0.04324090292830315 0.2139119809188585 -0.1492298372382269 -0.6397742757901079 -0.6632212601535353 -0.0970177526509996 0.05578493233444698
6040000000 -0.1152798272723576 0.03945965623483526 -0.5002804902793361 -0.7747439671983798 0.214668041241098 -0.1479403568108653 -0.1054213837706871 0.0435220515846294
  -0.5002803537731781 -0.7747437713690805 -0.113073262256634 0.0433930824098368 -0.1060317329458403 0.04407778728737043 0.2135995813282836 -0.1495580012347965
  0.2146462088593214 -0.1479259362714166 -0.1060212474344467 0.04407375792220445 -0.09547941863481894 0.05687424073257338 -0.6409054237244663 -0.6618854545626269
  -0.1054292344289716 0.04352519699908998 0.2136151972322634 -0.1495684860825301 -0.6410135174485361 -0.6620016272813617 -0.09689276821056395 0.0559191150046078
6045000000 -0.1152273435352804 0.03963999668242004 -0.5016019243541963 -0.7738652238173294 0.2143744367775312 -0.1482776266088031 -0.1054372957492465 0.0438066113247301
  -0.5016017874047612 -0.7738650280788436 -0.1130116927497331 0.04357479654369593 -0.1060462637785836 0.04436452803135394 0.2133019037485122 -0.1498957890392823
  0.2143526328585851 -0.1482631721304833 -0.1060357763100627 0.04436047065634623 -0.09535292000755806 0.0570047286461108 -0.6421422482231184 -0.6606637770774078
  -0.1054451480092154 0.04380977780595984 0.2133174983683313 -0.149906299195043 -0.6422505591009912 -0.6607797436529906 -0.09676742669231606 0.05605294149507896
6050000000 -0.1151744346848081 0.0398202566619103 -0.5029219067322553 -0.7729843243814716 0.2140799244993316 -0.1486140656420908 -0.1054524415923166 0.04409145563451484
  -0.5029217693394246 -0.7729841287347373 -0.1129496876011142 0.04375640727447268 -0.1060600190106462 0.04465154900290456 0.2130033134716353 -0.150232738489667
  0.2140581491344311 -0.1485995773063729 -0.1060495296606392 0.04464746358956438 -0.09522608049269947 0.05713485078724845 -0.6433768693288336 -0.6594398526351651
  -0.1054602953979262 0.04409464320503719 0.2130188867385557 -0.1502432738943543 -0.6434853969883487 -0.659555612673861 -0.09664172900601176 0.05618641083167476
6055000000 -0.1151211006931961 0.04000043514463132 -0.5042404343482654 -0.7721012709106956 0.2137845068152103 -0.1489496712513714 -0.105466819996568 0.04437658236514546
  -0.5042402965119228 -0.7721010753566536 -0.1128872468556277 0.04393791352157484 -0.1060729973507727 0.04493884800916223 0.2127038129173653 -0.1505688469114608
  0.2137627600953339 -0.1489351491399959 -0.1060625061950494 0.04493473452921272 -0.09509890105594193 0.05726460623146788 -0.6446092832854456 -0.6582136846453207
  -0.1054746752916743 0.0443797910473292 0.2127193647628192 -0.1505794075057741 -0.6447180273537902 -0.6583292377539729 -0.09651567606391213 0.05631952204148055
6060000000 -0.1150673415347585 0.04018053109964023 -0.5055575041379323 -0.7712160654270113 0.2134881861422264 -0.1492844407840469 -0.1054804296649324 0.04466198936268464
  -0.5055573658579604 -0.7712158699666016 -0.1128243705604623 0.0441193142024297 -0.106085197514234 0.04522642285217452 0.2124034045137888 -0.1509041116369277
  0.2134664681581147 -0.1492698849790215 -0.106074704628693 0.04522228127755413 -0.09497138266531464 0.05739399405579602 -0.6458394863390924 -0.6569852765218676
  -0.1054882863932907 0.04466521917874267 0.2124189348693786 -0.1509146973613651 -0.6459484464427973 -0.6571006223078983 -0.09638926878079257 0.05645227415285857
6065000000 -0.1150131571858904 0.0403605434937236 -0.5068731130378933 -0.7703287099545518 0.2131909649057712 -0.1496183715943107 -0.1054932693066222 0.04494767446811252
  -0.50687297431418 -0.7703285145887155 -0.112761058765165 0.04430060823248345 -0.1060966182228457 0.04551427132891568 0.2121020906973498 -0.1512385300051156
  0.213169275747927 -0.1496037821779096 -0.1060861236835133 0.04551010163177831 -0.09484352629118498 0.05752301333880949 -0.6470674747382034 -0.6557546316833885
  -0.1055011274118881 0.04495092544010217 0.212117599494849 -0.1512491407999745 -0.647176650503145 -0.6558697697547987 -0.09626250807395144 0.0565846661954517
6070000000 -0.1149585476250891 0.0405404712913956 -0.5081872579857161 -0.7694392065195842 0.2128928455395521 -0.1499514610431796 -0.1055053376371489 0.04523363551734573
  -0.5081871188181494 -0.7694390112492634 -0.1126973115216627 0.04448179452520118 -0.1061072582049895 0.04580239123130631 0.2117998739128348 -0.151572099361887
  0.2128711852982382 -0.149936838097942 -0.1060967620880186 0.04579819338402158 -0.09471533290626502 0.05765166316063844 -0.648293244733495 -0.6545217535530667
  -0.1055131970628786 0.04523690766716783 0.2118153610841882 -0.1515827351672653 -0.6484026357848978 -0.654636683518437 -0.09613539486321804 0.05671669720018835
6075000000 -0.1149035128329779 0.04072031345489627 -0.5094999359198807 -0.7685475571505147 0.2125938304855773 -0.1502837064985255 -0.105516633378342 0.04551987034125328
  -0.5094997963083499 -0.7685473619766526 -0.1126331288842827 0.04466287199206694 -0.106117116195631 0.04609078034623217 0.211496756613356 -0.1519048170599526
  0.2125721992508162 -0.1502690501072561 -0.1061066185773011 0.04608655432138633 -0.09458680348561803 0.05777994260296981 -0.6495167925779685 -0.6532866455587001
  -0.1055244940679925 0.04552316369065232 0.2115122220906811 -0.1519154778157484 -0.6496263985404037 -0.6534013670271934 -0.09600793007096044 0.05684836619928726
6080000000 -0.1148480527923273 0.04090006894418956 -0.510811143779765 -0.7676537638778995 0.2122939221941378 -0.1506151053351078 -0.1055271552583678 0.0458063767656761
  -0.5108110037241629 -0.7676535688014391 -0.1125685109097743 0.04484383954258348 -0.10612619093634 0.04637943645556417 0.2111927412603359 -0.1522366804589026
  0.2122723200557114 -0.1506004155808752 -0.106115691893056 0.04637518222596033 -0.09445793900666502 0.05790785074905145 -0.6507381145269007 -0.6520493111327166
  -0.1055350171552981 0.04580969133623974 0.2112081849759232 -0.1522473661048151 -0.6508479350242871 -0.6521638237140758 -0.09588011462209553 0.05697967222626242
6085000000 -0.1147921674880783 0.04107973671696231 -0.5121208785056393 -0.7667578287344479 0.2119931231237926 -0.1509456549346032 -0.1055369020117488 0.04609315261144416
  -0.5121207380058586 -0.7667576337563334 -0.1125034576573292 0.04502469608427295 -0.106134481175309 0.0466683573361774 0.2108878303234915 -0.1525676869252364
  0.2119715501712407 -0.1509309319007399 -0.1061239807836012 0.04666407487483602 -0.09432874044919212 0.05803538668369659 -0.6519572068378405 -0.6508097537121886
  -0.1055447650592192 0.04609648842460231 0.2109032522098045 -0.1525783974007671 -0.6520672414934424 -0.6509240570167398 -0.09575194944409571 0.05711061431592804
6090000000 -0.1147358569073645 0.04125931572862272 -0.5134291370386479 -0.7658597537550348 0.2116914357413517 -0.1512753526856406 -0.1055458723793819 0.04638019569439435
  -0.5134289960945834 -0.7658595588762116 -0.1124379691886033 0.04520544052267714 -0.1061419856673742 0.04695754075997101 0.2105820262808171 -0.1528978338323979
  0.2116698920639713 -0.151260596455742 -0.1061314840038965 0.04695323004013048 -0.09419920879535704 0.05816254949328734 -0.6531740657706008 -0.6495679767388465
  -0.1055537365205553 0.04638355277141921 0.2105974262704935 -0.1529085690768492 -0.6532843142070336 -0.6496820703774986 -0.09562343546699788 0.05724119150440378
6095000000 -0.1146791210395351 0.04143880493229928 -0.5147359163208001 -0.7649595409767076 0.211388862521858 -0.1516041959838304 -0.1055540651085563 0.0466675038253882
  -0.5147357749323499 -0.7649593461981207 -0.1123720455677379 0.04538607176135821 -0.1061487031740315 0.04724698449388745 0.2102753316185675 -0.1532271185608039
  0.2113673482087032 -0.1515894066417537 -0.1061382003155629 0.04724264548900509 -0.09406934502969562 0.05828933826577957 -0.6543886875872575 -0.6483239836590944
  -0.1055619302864988 0.04667088218739435 0.2102907096444205 -0.1532378785132812 -0.6544991494264838 -0.648437867243339 -0.09549457362341256 0.05737140282912021
6100000000 -0.1146219598761776 0.04161820327883966 -0.5160412132949568 -0.7640571924386929 0.2110854059485729 -0.1519321822317975 -0.1055614789529734 0.04695507481033086
  -0.5160410714620194 -0.7640569977612887 -0.1123056868613806 0.04556658870189929 -0.1061546324634608 0.04753668629993319 0.209967748831243 -0.153555538497877
  0.2110639210884529 -0.1519173598616619 -0.1061441284869023 0.04753231898368458 -0.09393915013912978 0.05841575209070678 -0.6556010685521397 -0.6470777779240228
  -0.1055693451106538 0.04695847447827366 0.2099831048262606 -0.1535663230972888 -0.6557117434154712 -0.6471914510659373 -0.09536536484853098 0.05750124732882357
6105000000 -0.1145643734111401 0.04179750971681027 -0.5173450249048194 -0.7631527101824044 0.2107810685129567 -0.1522593088392115 -0.1055681126727648 0.04724290645018787
  -0.5173448826272955 -0.763152515607131 -0.112238893138707 0.04574699024390551 -0.1061597723105392 0.04782664393519746 0.2096592804215706 -0.1538830910380775
  0.2107596131944356 -0.1522444535253968 -0.1061492672929151 0.04782224828147792 -0.09380862511297283 0.05854179005918484 -0.6568112049318278 -0.6458293629894262
  -0.1055759797530562 0.0472463274448643 0.2096746143189172 -0.1538939002231355 -0.6569220924399269 -0.6459428253016711 -0.09523581008013503 0.05763072404358204
6110000000 -0.1145063616405552 0.04197672319249534 -0.5186473480949166 -0.7622460962514566 0.2104758527146525 -0.1525855732228209 -0.1055739650345112 0.04753099654100495
  -0.5186472053727084 -0.7622459017792599 -0.1121716644714425 0.04592727528500524 -0.1061641214968649 0.04811685515187216 0.2093499289004885 -0.1542097735829348
  0.2104544270260487 -0.1525706850499671 -0.1061536155153206 0.04811243113479684 -0.09367777094293693 0.05866745126391627 -0.6580190929951459 -0.6445787423158157
  -0.1055818329801907 0.04753443888305258 0.2093652406335053 -0.1542206072921544 -0.6581301927680245 -0.6446919934116375 -0.09510591025860492 0.05775983201479057
6115000000 -0.1144479245628615 0.0421558426498965 -0.5199481798105933 -0.761337352691662 0.210169761061469 -0.1529109728064826 -0.1055790348112603 0.04781934287392482
  -0.5199480366436043 -0.761337158323492 -0.1121040009338826 0.04610744272085097 -0.1061676788107742 0.04840731769727295 0.2090396967871282 -0.1545355835410781
  0.2101483650908539 -0.152896051859489 -0.1061571719425767 0.04840286529117726 -0.09354658862314137 0.05879273479919536 -0.6592247290131592 -0.643325919368434
  -0.1055869035650094 0.0478228065838214 0.2090549862893331 -0.1545464417127795 -0.6593360406701797 -0.6434389588616659 -0.09497566632692775 0.05788857028517724
6120000000 -0.1143890621788284 0.04233486703073278 -0.5212475169979973 -0.7604264815510555 0.2098627960693623 -0.1532355050211944 -0.1055833207825458 0.04810794323520616
  -0.5212473733861341 -0.7604262872878599 -0.1120359026029163 0.04628749144512134 -0.1061704430473607 0.04869802931385789 0.208728586608797 -0.1548605183282692
  0.2098414299045596 -0.1532205513852192 -0.1061599353698969 0.04869354849329824 -0.09341507915011671 0.05891763976091244 -0.6604281092591687 -0.6420708976172711
  -0.1055911902869515 0.04811142833326958 0.2087438538138868 -0.1548714009005777 -0.6605396324190443 -0.642183725122334 -0.09484507923070594 0.05801693789880898
6125000000 -0.114329774491578 0.04251379527444013 -0.5225453566040675 -0.7595134848798853 0.2095549602624182 -0.1535591673051263 -0.1055868217344052 0.04839679540624182
  -0.5225452125472381 -0.7595132907226164 -0.1119673695580459 0.04646742034952198 -0.1061724130084936 0.04898898773924827 0.2084166009009609 -0.1551845753674335
  0.2095336239910035 -0.1535441810655855 -0.1061619045992709 0.04898447847900252 -0.09328324352281449 0.05904216524655907 -0.6616292300087034 -0.6408136805370791
  -0.1055946919319602 0.04840030191262984 0.2084318457428102 -0.1551954822782794 -0.6617409642894987 -0.6409262956689812 -0.09471414991816554 0.05814493390109682
6130000000 -0.1142700615066086 0.04269262631817181 -0.5238416955765229 -0.75859836473064 0.2092462561728347 -0.1538819571036529 -0.1055895364593995 0.04868589716357773
  -0.5238415510746366 -0.7585981706802462 -0.11189840188141 0.04664722832378793 -0.106173587502838 0.04928019070624894 0.2081037422072269 -0.155507752088691
  0.2092249498821344 -0.1538669383462204 -0.1061630784394825 0.04927565298131647 -0.09315108274261238 0.05916631035523275 -0.6628280875395199 -0.6395542716073885
  -0.1055974072925022 0.04868942509828689 0.2081189646198901 -0.1555186832758109 -0.662940032558651 -0.6396666739817261 -0.09458287934016638 0.05827255733880314
6135000000 -0.1142099232318179 0.04287135909679846 -0.5251365308638506 -0.7576811231580398 0.2089366863409033 -0.1542038718693836 -0.1055914637566294 0.04897524627893048
  -0.5251363859168182 -0.757680929215472 -0.1118289996578046 0.04682691425568519 -0.1061739653458727 0.04957163594286776 0.2077900130793253 -0.1558300459293888
  0.2089154101179935 -0.1541888206799892 -0.1061634557061292 0.04956706972847058 -0.09301859781332204 0.05929007418764219 -0.6640246781315929 -0.6382926743125216
  -0.1055993351675853 0.04897879566179678 0.2078052129970364 -0.1558410013303256 -0.6641368335058278 -0.6384048635454804 -0.09445126845020752 0.0583998072600465
6140000000 -0.1141493596775265 0.04304999254290864 -0.5264298594152902 -0.756761762219058 0.2086262533149917 -0.1545249090621958 -0.1055926024317563 0.04926484051920694
  -0.5264297140230265 -0.7567615683852695 -0.111759162974705 0.04700647703101299 -0.1061735453599099 0.04986332117233671 0.2074754160770913 -0.1561514543341317
  0.2086050072466974 -0.1545098255270258 -0.10616303522164 0.0498587264439192 -0.09288578974119494 0.05941345584611252 -0.6652189980671159 -0.6370288921416098
  -0.105600474362777 0.04926841136990439 0.2074905934342644 -0.156162433886235 -0.6653313634125776 -0.6371408678499648 -0.09431931820443874 0.05852668271430939
6145000000 -0.1140883708565012 0.04322852558680944 -0.5277216781808302 -0.7558402839729255 0.2083149596515239 -0.1548450661492649 -0.1055929512970177 0.04955467764652186
  -0.5277215323432479 -0.7558400902488682 -0.111688891922288 0.04718591553360606 -0.1061723263741123 0.05015524411313191 0.2071599537684468 -0.1564719747548137
  0.2082937438244191 -0.15482995035476 -0.1061618158152963 0.05015062084636222 -0.09275265953493132 0.05953645443459044 -0.666411043630494 -0.6357629285886058
  -0.1056008236902234 0.04955826998456303 0.207175108499678 -0.1564829783952409 -0.666523618562656 -0.635874690389723 -0.0941870295616677 0.05865318275244354
6150000000 -0.1140269567839785 0.04340695715652708 -0.5290119841111842 -0.754916690481139 0.208002807914963 -0.1551643406050962 -0.1055925091712475 0.04984475541821747
  -0.5290118378282013 -0.7549164968677661 -0.1116181865934533 0.04736522864533681 -0.1061703072245136 0.0504474024789942 0.2068436287293832 -0.1567916046506501
  0.207981622415369 -0.1551491926379523 -0.1061597963232475 0.05044275064976375 -0.09261920820568496 0.0596590690586497 -0.6676008111083394 -0.6344947871523037
  -0.105600381968666 0.04984836926295241 0.2068587607694497 -0.1568026323163663 -0.6677135952420292 -0.6346063346641401 -0.09405440348336831 0.05877930642667676
6155000000 -0.1139651174776879 0.0435852861778082 -0.5303007741577888 -0.7539909838074723 0.2076898006777919 -0.1554827299115574 -0.1055912748798936 0.05013507158688164
  -0.5303006274293246 -0.7539907903057382 -0.1115470470838456 0.04754441524611833 -0.1061674867540364 0.05073979397894959 0.2065264435439415 -0.1571103414882076
  0.2076686455917764 -0.1554675498587235 -0.1061569755885316 0.05073511356337417 -0.09248543676707215 0.05978129882549651 -0.6687882967894661 -0.6332244713363502
  -0.1055991480234605 0.05013870695749786 0.2065415528278029 -0.1571213931159865 -0.6689012897388661 -0.6333358041774568 -0.09392144093368998 0.05890505279061981
6160000000 -0.113902852957876 0.04376351157412068 -0.5315880452727891 -0.7530631660179848 0.2073759405204941 -0.1558002315579082 -0.1055892472550354 0.05042562390036684
  -0.5315878980987631 -0.7530629726288437 -0.1114754734918771 0.04772347421390688 -0.1061638638125105 0.0510324163173296 0.2062084008041941 -0.1574281827414364
  0.2073548159338709 -0.1557850195065867 -0.1061533524610943 0.05102770729175006 -0.09235134623517695 0.05990314284397498 -0.6699734969648875 -0.6319519846492645
  -0.1055971206865957 0.05042928081588909 0.2062234872669931 -0.1574392582678609 -0.6700866983435344 -0.6320631024387818 -0.09378814287946546 0.05903042089927281
6165000000 -0.1138401632473295 0.04394163226665523 -0.5328737944090243 -0.7521332391810305 0.2070612300315351 -0.1561168430408328 -0.1055864251354027 0.05071641010180951
  -0.5328736467893579 -0.7521330459054377 -0.1114034659187491 0.04790240442470498 -0.106159437256692 0.0513252671937931 0.2058895031102269 -0.1577451258917023
  0.2070401360298633 -0.156101599078479 -0.106148925797805 0.05132052953477438 -0.09221693762855927 0.06002460022457355 -0.6711564079278151 -0.6306773306044509
  -0.105594298796711 0.05072008858109912 0.2059045666872894 -0.1577562252531646 -0.6712698173485978 -0.6307882329621153 -0.09365451029022037 0.05915540980903248
6170000000 -0.1137770483713994 0.04411964717432679 -0.5341580185200183 -0.7512012053672682 0.2067456718073427 -0.1564325618644714 -0.1055828073663929 0.05100742792964796
  -0.5341578704546363 -0.7512010122061805 -0.111331024468474 0.04808120475256452 -0.1061542059502807 0.05161834430334512 0.2055697530701191 -0.1580611684278164
  0.2067246084759257 -0.1564172860787906 -0.1061436944624785 0.0516135779876787 -0.09208221196826204 0.0601456700794298 -0.6723370259736455 -0.6294005127202171
  -0.1055906811991135 0.05101112799140281 0.2055847936969558 -0.1580722915605184 -0.6724506430488121 -0.6295111992663578 -0.09352054413818051 0.05928001857769914
6175000000 -0.1137135083580247 0.04429755521377612 -0.5354407145599659 -0.7502670666496714 0.2064292684522882 -0.1567473855404507 -0.1055783928000904 0.05129867511764278
  -0.5354405660487939 -0.7502668736040443 -0.1112581492478978 0.04825987406958992 -0.1061481687639403 0.0519116453363594 0.205249153299925 -0.158376307846067
  0.2064082358761727 -0.1567320780193998 -0.1061376573258908 0.05190685034106229 -0.09194717027781739 0.06026635152233714 -0.6735153473999667 -0.6281215345197866
  -0.1055862667457976 0.05130239678039621 0.2052641709122308 -0.1583874546860212 -0.6736291717411184 -0.6282320048753275 -0.09338624539828128 0.0594042462644833
6180000000 -0.1136495432377561 0.0444753552993719 -0.5367218794837247 -0.7493308251035375 0.2061120225786662 -0.1570613115879157 -0.1055731802952822 0.05159014939489429
  -0.5367217305266898 -0.7493306321743288 -0.1111848403667225 0.04843841124594195 -0.1061413245753148 0.05220516797859825 0.2049277064236536 -0.1586905416502502
  0.2060910208426417 -0.157045972419702 -0.1061308132657986 0.05220034428091425 -0.0918118135832543 0.06038664366875037 -0.674691368506548 -0.6268403995313195
  -0.1055810542954618 0.05159389267701597 0.2049427009573095 -0.158701712133281 -0.6748053997246423 -0.6269506533177814 -0.0932516150481761 0.05952809193001377
6185000000 -0.1135851530437798 0.04465304634321267 -0.5380015102467991 -0.7483924828064971 0.205793936806675 -0.1573743375335608 -0.1055671687174788 0.0518818484858633
  -0.5380013608438312 -0.7483922899946643 -0.1111110979375277 0.04861681514984088 -0.1061336722690485 0.05249890991123428 0.2046054150732508 -0.1590038673517025
  0.2057729659952732 -0.1573589668066403 -0.1061231611669579 0.05249405748863415 -0.09167614291310565 0.0605065456357922 -0.6758650855953375 -0.6255571112879257
  -0.1055750427135272 0.05188561340555762 0.2046203864643233 -0.1590150614134455 -0.6759793233006892 -0.6256671481274246 -0.09311665406824461 0.05965155463634408
6190000000 -0.1135203378119421 0.04483062725512903 -0.5392796038053317 -0.7474520418385247 0.2054750137643971 -0.1576864609116607 -0.1055603569389293 0.05217377011038921
  -0.5392794539563615 -0.7474518491450272 -0.1110369220757933 0.04879508464757083 -0.1061252107368034 0.05279286881087077 0.2042822818885781 -0.1593162824693309
  0.2054540739618906 -0.1576710587147384 -0.1061146999211411 0.05278798764105243 -0.09154015929841507 0.06062605654225914 -0.6770364949704605 -0.6242716733276807
  -0.1055682308721549 0.05217755668569578 0.2042972300733205 -0.1593275000452329 -0.6771509387727405 -0.6243814928429301 -0.09298136344160149 0.05977463344696069
6195000000 -0.1134550975807722 0.04500809694268617 -0.540556157116088 -0.7465095042819495 0.2051552560877784 -0.1579976792641017 -0.1055527438386405 0.0524659119837097
  -0.54055600682105 -0.7465093117077465 -0.1109623128999222 0.04897321860348341 -0.1061159388772767 0.05308704234956307 0.2039583095173941 -0.1596277845296435
  0.2051343473781804 -0.1579822456861305 -0.1061054284271568 0.05308213241045271 -0.09140386377274351 0.06074517550862814 -0.6782055929382144 -0.6229840891936453
  -0.1055606176502643 0.05246972023250263 0.2039732344322469 -0.159639025554965 -0.6783202424464498 -0.6230936910079563 -0.09284574415410499 0.05989732742679034
6200000000 -0.1133894323915075 0.04518545431118645 -0.5418311671364506 -0.7455648722214651 0.2048346664206089 -0.1583079901404134 -0.1055443283023951 0.05275827181648002
  -0.541831016395278 -0.7455646797675152 -0.1108872705312617 0.04915121588000199 -0.1061058555962208 0.05338142819484011 0.2036335006153338 -0.1599383710667811
  0.2048137888876719 -0.1582925252705928 -0.1060953455908658 0.05337648946459181 -0.09126725737217752 0.06086390165706297 -0.6793723758070633 -0.6216943624338785
  -0.1055522019335505 0.05276210175646746 0.2036484021969254 -0.1599496354765958 -0.6794872306296408 -0.621803746171161 -0.09270979719436563 0.06001963564220774
6205000000 -0.1133233422881171 0.04536269826367224 -0.5431046308244011 -0.7446181477441374 0.2045132474145013 -0.1586173910977986 -0.1055351092227681 0.05305084731479239
  -0.5431044796370308 -0.7446179554114026 -0.1108117950941272 0.0493290753376262 -0.1060949598064597 0.05367602400972482 0.2033078578458886 -0.1602480396225489
  0.2044924011417165 -0.1586018950255742 -0.1060844503252019 0.05367105646672168 -0.09113034113533539 0.06098223411142054 -0.6805368398876392 -0.6204024966014553
  -0.1055429826145021 0.05305469896351673 0.2033227360310363 -0.1602593273517442 -0.6806518996323018 -0.6205116618862179 -0.09257352355375442 0.06014155716104345
6210000000 -0.1132568273173262 0.04553982770092892 -0.5443765451385129 -0.7436693329394191 0.2041910017288712 -0.1589258797011651 -0.1055250854991458 0.05334363618019527
  -0.5443763935048843 -0.7436691407288596 -0.1107358867158236 0.04950679583493633 -0.1060832504279077 0.05397082745275627 0.2029813838803867 -0.1605567877464461
  0.2041701867994682 -0.1589103525162286 -0.1060727415501876 0.05396583107561064 -0.09099311610337396 0.061100171997258 -0.6816989814927334 -0.6191084952544842
  -0.1055329585924187 0.05334750955503222 0.2029962386060961 -0.1605680987297232 -0.6818142457665862 -0.6192174417118356 -0.09243692422641087 0.06026309105259182
6215000000 -0.1131898875286397 0.04571684152148798 -0.5456469070379381 -0.742718429899158 0.2038679320309157 -0.1592334535231558 -0.1055142560377425 0.05363663610971362
  -0.5456467549579908 -0.7427182378117355 -0.1106595455266685 0.04968437622859809 -0.1060707263875874 0.0542658361780106 0.2026540813979719 -0.160864612995697
  0.2038471485278614 -0.1592178953154441 -0.1060602181929525 0.05426081094556447 -0.09085558331999688 0.06121771444183927 -0.6828587969373008 -0.6178123619561213
  -0.1055221287734294 0.05364053122787206 0.2026689126014388 -0.1608759471675724 -0.6829742653468029 -0.6179210892117728 -0.09230000020925284 0.06038423638761926
6220000000 -0.1131225229743675 0.04589373862163053 -0.546915713482396 -0.7417654407176053 0.2035440409955935 -0.1595401101441816 -0.1055026197516185 0.05392984479586719
  -0.5469155609560723 -0.7417652487542827 -0.1105827716600142 0.04986181537336753 -0.1060573866196481 0.05456104783512292 0.2023259530855831 -0.1611715129352838
  0.2035232890015907 -0.1595245210038746 -0.1060468791877527 0.05455599372644802 -0.09071774383146015 0.06133486057414211 -0.6840162825384469 -0.6165141002745931
  -0.1055104920705085 0.05393376167438867 0.2023407607041932 -0.1611828702300886 -0.6841319546894197 -0.6166226079548542 -0.0921627525019845 0.06050499223837218
6225000000 -0.1130547337096481 0.04607051789539084 -0.5481829614321617 -0.740810367491432 0.2032193313056024 -0.1598458471524497 -0.1054901755606975 0.05422325992669146
  -0.5481828084594054 -0.7408101756531722 -0.1105055652522708 0.05003911212209607 -0.1060432300653817 0.05485646006930808 0.2019970016379338 -0.1614774851379735
  0.20319861090309 -0.1598302271699707 -0.1060327234759873 0.05485137706370732 -0.09057959868658055 0.0614516095248647 -0.6851714346154337 -0.6152137137832052
  -0.1054980474034954 0.05422719858245025 0.2020117856092644 -0.1614888654898561 -0.6852873101130573 -0.6153220015149898 -0.09202518210710418 0.06062535767858544
6230000000 -0.112986519792473 0.04624717823455998 -0.5494486478480541 -0.7398532123197336 0.2028938056513597 -0.1601506621439953 -0.1054769223917844 0.05451687918575631
  -0.5494484944288106 -0.739853020607501 -0.1104279264429286 0.05021626532573583 -0.1060282556732434 0.05515207052138321 0.201667229757491 -0.1617825271843528
  0.2028731169225114 -0.1601350114100108 -0.1060177500062154 0.05514695859838997 -0.09044114893674161 0.0615679604264335 -0.686324249489673 -0.6139112060603653
  -0.1054847936991104 0.05452083963545891 0.2016819900193102 -0.1617939305272771 -0.6864403279384872 -0.6140192734711902 -0.0918872900299131 0.06074533178349078
6235000000 -0.1129178812837113 0.04642371852869 -0.550712769691426 -0.7388939773040459 0.2025674667309794 -0.1604545527227137 -0.1054628591785818 0.05481070025218693
  -0.550712615825643 -0.7388937857188039 -0.1103498553745806 0.0503932738333451 -0.1060124623988669 0.05544787682778881 0.201336640154455 -0.1620866366628567
  0.2025468097577029 -0.1604388713281312 -0.106001957734177 0.05544273596716813 -0.09030239563590117 0.06168391241300977 -0.6874747234847222 -0.6126065806895985
  -0.1054707298909726 0.0548146825123713 0.2013513766447234 -0.1620980629306032 -0.6875910044886293 -0.6127144274075825 -0.09174907727852454 0.06086491362982566
6240000000 -0.1128488182471341 0.04660013766509795 -0.5519753239241518 -0.7379326645483528 0.2022403172502514 -0.1607575165003888 -0.1054479848617086 0.05510472080068247
  -0.5519751696117782 -0.737932473091066 -0.1102713521929455 0.05057013649209395 -0.1059958492050839 0.05574387662061045 0.2010052355467365 -0.1623898111697986
  0.2022196921141881 -0.1607418045363573 -0.1059853456228063 0.05573870680235921 -0.0901633398405985 0.0617994646204974 -0.6886228529262866 -0.6112998412595635
  -0.1054558549196177 0.05510872488771836 0.2010199482036069 -0.162401260295967 -0.6887393360885466 -0.6114074669134318 -0.09161054486387145 0.06098410229584159
6245000000 -0.1127793307494393 0.04677643452887013 -0.5532363075086134 -0.7369692761590978 0.2019123599226198 -0.1610595510967259 -0.1054322983887167 0.05539893850153673
  -0.5532361527496023 -0.7369690848307328 -0.1101924170468901 0.0507468521472699 -0.1059784150619404 0.05604006752760109 0.2006730186599362 -0.1626920483094027
  0.2018917667051432 -0.1610438086546337 -0.1059679126422535 0.05603486873194848 -0.09002398260996121 0.06191461618655005 -0.6897686341422109 -0.6099909913640713
  -0.1054401677325145 0.05540296443162497 0.2006877074217551 -0.1627035202274091 -0.6898853190654476 -0.6100983955831535 -0.09147169379971555 0.0611028968613129
6250000000 -0.1127094188602753 0.04695260800286688 -0.5544957174076959 -0.7360038142451975 0.2015835974691608 -0.1613606541393798 -0.1054157987141086 0.05569335102065815
  -0.5544955622019991 -0.7360036230467198 -0.1101130500884521 0.05092341964228419 -0.1059601589467145 0.05633644717220246 0.2003399922273237 -0.1629933456938333
  0.2015630362513763 -0.1613448813108559 -0.1059496577698998 0.05633121937961037 -0.0898843250057122 0.06202936625057896 -0.6909120634624809 -0.6086800346021018
  -0.105423667284083 0.05569739880982997 0.2003546570326313 -0.1630048403369132 -0.6910289497486799 -0.6087872170163321 -0.09133252510265513 0.06122129640754634
6255000000 -0.1126390826522664 0.04712865696772707 -0.5557535505847694 -0.7350362809180503 0.2012540326185602 -0.1616608232639884 -0.1053984847993535 0.05598795601958885
  -0.5557533949323415 -0.7350360898504269 -0.1100332514728636 0.05109983781867782 -0.1059410798439353 0.05663301317356743 0.2000061589898146 -0.1632937009432253
  0.2012335034813047 -0.1616450201408989 -0.1059305799903752 0.05662775636473066 -0.08974436809217641 0.06214371395376059 -0.6920531372192208 -0.6073669745778217
  -0.1054063525357111 0.05599202568370629 0.2000207997773457 -0.1633052182444337 -0.6921702244697268 -0.607473934817744 -0.09119303979213447 0.06133930001738929
6260000000 -0.1125683222010372 0.04730458030187326 -0.5570098040036798 -0.7340666782915489 0.2009236681070922 -0.1619600561142005 -0.105380355612907 0.05628275115552615
  -0.5570096479044779 -0.7340664873557473 -0.1099530213585724 0.0512761055161279 -0.1059211767453988 0.05692976314658179 0.1996715216959495 -0.1635931116857155
  0.2009031711309326 -0.1619442227886498 -0.1059106782955771 0.05692447730242903 -0.0896041129362888 0.06225765843904405 -0.6931918517466885 -0.6060518149006016
  -0.1053882224557726 0.05628684271028138 0.1996861384046341 -0.163604651577927 -0.6933091395622114 -0.6061585525973648 -0.09105323889045062 0.06145690677523952
6265000000 -0.1124971375852368 0.04748037688151667 -0.5582644746287402 -0.7330950084820919 0.2005925066785965 -0.1622583503417065 -0.1053614101302253 0.05657773408134194
  -0.5582643180827233 -0.7330948176790797 -0.1098723599072663 0.05145222157245422 -0.1059004486501852 0.05722669470188627 0.1993360831018718 -0.1638915755574717
  0.2005720419438293 -0.162242486906037 -0.1058899516846866 0.05722137980358025 -0.08946356060759991 0.06237119885115958 -0.6943282033812763 -0.6047345591850334
  -0.1053692760196434 0.05658184754225688 0.1993506756708352 -0.1639031379733817 -0.6944456913618881 -0.6048410739703953 -0.09091312342276352 0.0615741157670544
6270000000 -0.1124255288865644 0.04765604558066256 -0.5595175594247166 -0.7321212736085954 0.2002605510844555 -0.1625557036062714 -0.1053416473337846 0.05687290244560261
  -0.5595174024318441 -0.7321210829393416 -0.1097912672838952 0.05162818482362624 -0.1058788945646777 0.05752380544589904 0.1989998459713052 -0.1641890902027247
  0.2002401186711059 -0.1625398101530603 -0.105868399164186 0.05751846147483653 -0.08932271217828419 0.06248433433662618 -0.6954621884615069 -0.6034152110509485
  -0.1053495122097187 0.05687703782802852 0.1990144143398691 -0.1642006750748486 -0.6955798762066424 -0.6035215025572763 -0.09077269441710299 0.06169092608036029
6275000000 -0.1123534961897931 0.04783158527111576 -0.5607690553568164 -0.7311454757925056 0.1999278040835721 -0.1628521135757619 -0.1053210662130964 0.05716825389259009
  -0.5607688979170518 -0.7311452852579784 -0.1097097436566941 0.05180399410376952 -0.1058565135025777 0.05782109298083764 0.1986628130755314 -0.1644856532737969
  0.1999074040713934 -0.1628361901978224 -0.1058460197478766 0.05781571991865066 -0.08918156872314642 0.06259706404375993 -0.6965938033280334 -0.6020937741234359
  -0.1053289300154312 0.05717241121170752 0.1986773571832141 -0.1644972605344728 -0.6967116904364908 -0.6021998419837061 -0.09063195290437744 0.06180733680426193
6280000000 -0.112281039582795 0.04800699482248647 -0.5620189593906827 -0.7301676171578072 0.1995942684423466 -0.1631475779261778 -0.1052996657647263 0.05746378606232161
  -0.5620188015039893 -0.7301674267589775 -0.1096277891972059 0.05197964824517341 -0.1058333044849251 0.05811855490474159 0.1983249871933678 -0.1647812624311343
  0.1995739009108193 -0.1631316247165577 -0.1058228124568955 0.05811315273329717 -0.08904013131962814 0.06270938712268201 -0.6977230443236361 -0.6007702520328589
  -0.1053075284332665 0.05746796533313976 0.1983395069798853 -0.1647928920125211 -0.6978411303935788 -0.6008760958806582 -0.09049089991838338 0.06192334702945269
6285000000 -0.1122081591565663 0.04818227310219605 -0.5632672684923749 -0.7291876998310401 0.1992599469346536 -0.1634420943416829 -0.1052774449923098 0.05775949659057032
  -0.5632671101587192 -0.7291875095688783 -0.1095454040803049 0.05215514607829801 -0.1058092665401112 0.05841618881149458 0.1979863711111447 -0.1650759153433339
  0.1992396119629847 -0.163426111393664 -0.1057987763197326 0.05841075751289536 -0.088898401047816 0.06282130272532734 -0.6988499077932209 -0.5994446484148739
  -0.1052853064667812 0.05776369782792697 0.1980008665164109 -0.1650875671774146 -0.6989681924221749 -0.5995502678844016 -0.09034953649581187 0.06203895584822348
6290000000 -0.1121348550052515 0.04835741897548328 -0.5645139796283657 -0.7282057259413094 0.1989248423418189 -0.1637356605146343 -0.105254402906569 0.05805538310888615
  -0.5645138208477148 -0.7282055358167847 -0.1094625884842188 0.05233048643178173 -0.1057843987038999 0.05871399229084688 0.1976469676226823 -0.1653696096871775
  0.198904540008941 -0.1637196479217306 -0.1057739103722486 0.0587085318474319 -0.088756378990447 0.06293281000545277 -0.6999743900838163 -0.5981169669104478
  -0.1052622631266196 0.05805960632744717 0.1976614385868098 -0.1653812837057577 -0.7000928728686748 -0.598222361636514 -0.09020786367625741 0.06215416235447353
6295000000 -0.112061127226169 0.04853243130541069 -0.5657590897655245 -0.7272216976202943 0.1985889574525961 -0.1640282741456124 -0.1052305385253304 0.05835144324461514
  -0.5657589305378494 -0.7272215076343805 -0.1093793425905522 0.05250566813244913 -0.1057587000194422 0.05901196292843811 0.197306779529268 -0.1656623431476592
  0.1985686878371674 -0.164012232001571 -0.1057482136576895 0.05900647332278245 -0.08861406623291673 0.06304390811864609 -0.7010964875445781 -0.5967872111658791
  -0.1052383974305301 0.05835568845887431 0.1973212259925682 -0.1656740392823677 -0.7012151680815971 -0.5968923807839059 -0.09006588250222713 0.06226896564372021
6300000000 -0.1119869759198351 0.04870730895287102 -0.5670025958711099 -0.7262356170022686 0.1982522950631431 -0.1643199329434512 -0.1052058508735411 0.05864767462092175
  -0.56700243619638 -0.7262354271559365 -0.1092956665843101 0.05268069000531867 -0.1057321695372936 0.05931009830581924 0.1969658096396326 -0.1659541134180147
  0.1982320582435459 -0.1643038613422503 -0.1057216852267085 0.05930457952073567 -0.08847146386328573 0.06315459622233395 -0.7022161965267799 -0.5954553848328102
  -0.1052137084033829 0.05865194184520011 0.1969802315426171 -0.1659658316003065 -0.7023350744115806 -0.5955603289788357 -0.08992359401914778 0.06238336481310905
6305000000 -0.1119124011899898 0.04888205077659399 -0.568244494912756 -0.7252474862241034 0.1979148579769991 -0.1646106346252684 -0.1051803389832856 0.05894407485680783
  -0.5682443347909459 -0.7252472965183261 -0.1092115606539193 0.05285555087361079 -0.1057048063154327 0.05960839600047639 0.196624060769928 -0.1662449181997546
  0.1978946540313389 -0.1645945336611164 -0.1056943241373766 0.05960284801901406 -0.0883285729722862 0.06326487347579166 -0.7033335133838171 -0.5941214915682509
  -0.1051881950771855 0.05894836410525379 0.196638458053308 -0.1662566583609076 -0.7034525882113879 -0.5942262098789257 -0.08978099927537427 0.0624973589614239
6310000000 -0.1118374031436207 0.04905665563315329 -0.5694847838584655 -0.7242573074252859 0.1975766490050593 -0.1649003769164948 -0.1051540018938027 0.0592406415671346
  -0.5694846232895501 -0.7242571178610373 -0.1091270249912533 0.0530302495587564 -0.1056766094192753 0.05990685358585228 0.1962815357437023 -0.1665347552026908
  0.1975564780111643 -0.1648842466838299 -0.1056661294552046 0.05990127639129846 -0.08818539465332943 0.06337473904015137 -0.7044484344712034 -0.5927855350345946
  -0.1051618564911007 0.05924495285372357 0.1962959083483907 -0.16654651727381 -0.7045677058358992 -0.5928900271471859 -0.08963809932219866 0.06261094718909803
6315000000 -0.1117619818909892 0.0492311223769737 -0.5707234596765939 -0.7232650827479317 0.1972376709655521 -0.165189157550904 -0.1051268386515023 0.05953737236264263
  -0.5707232986605508 -0.723264893326184 -0.1090420597916539 0.053204784880405 -0.105647577921693 0.06020546863137006 0.1959382373918777 -0.1668236221449675
  0.1972175330009733 -0.1651729981443937 -0.1056371002531569 0.06019986220725011 -0.08804193000251231 0.06348419207841134 -0.7055609561465717 -0.5914475188996374
  -0.1051346916914622 0.0595417057011763 0.1959525852589885 -0.1668354060569836 -0.7056804236421128 -0.5915517844520271 -0.08949489521385658 0.06272412859822399
6320000000 -0.1116861375456542 0.04940544986033844 -0.5719605193358435 -0.7222708143367937 0.1968979266840148 -0.1654769742706425 -0.1050988483099816 0.05983426484997338
  -0.5719603578726515 -0.722270625058522 -0.1089566652539548 0.05337915565643352 -0.1056177109030293 0.06050423870245508 0.1955941685527255 -0.1671115167530921
  0.1968778218260238 -0.1654607857851823 -0.1056072356116703 0.060498603032533 -0.08789818011862374 0.06359323175544525 -0.7066710747696712 -0.5901074468365974
  -0.1051066997317923 0.05983862025407961 0.1956084916235745 -0.1671233224367626 -0.7067907379891458 -0.5902114854672835 -0.08935138800753697 0.06283690229256463
6325000000 -0.1116098702244979 0.04957963693339672 -0.5731959598052493 -0.7212745043392788 0.1965574189932688 -0.1657638248262597 -0.1050700299300418 0.06013131663168928
  -0.5731957978948896 -0.721274315205458 -0.1088708415805047 0.05355336070295532 -0.1055870074511169 0.06080316136055923 0.1952493320718427 -0.1673984367619633
  0.1965373473188581 -0.1657476073569718 -0.1055765346186688 0.06079749642883781 -0.0877541461031528 0.06370185723801121 -0.7077787867023689 -0.5887653225241283
  -0.1050778796728178 0.06013569411482202 0.1952636302879483 -0.1674102641478733 -0.7078986452382309 -0.5888691338722295 -0.08920757876338954 0.06294926737756389
6330000000 -0.1115331800477508 0.04975368244417157 -0.5744297780541716 -0.720276154905459 0.1962161507333955 -0.1660497069767363 -0.1050403825797047 0.06042852530629536
  -0.5744296156966257 -0.720275965917065 -0.1087845889771901 0.05372739883432898 -0.1055554666612937 0.06110223416318275 0.1949037308021273 -0.1676843799149004
  0.1961961123192775 -0.1660334606189697 -0.1055449963695807 0.0610965399539042 -0.08760982906029355 0.06381006769476144 -0.7088840883086466 -0.5874211496463488
  -0.1050482305824862 0.06043292488173433 0.1949180041052118 -0.167696228933463 -0.7090041417527192 -0.5875247333515986 -0.08906346854453247 0.063061222960358
6335000000 -0.1114560671390159 0.04992758523856777 -0.5756619710522815 -0.7192757681880849 0.1958741247517115 -0.1663346184895145 -0.1050099053342299 0.06072588846826001
  -0.5756618082475334 -0.7192755793460933 -0.1086979076534586 0.05390126886316764 -0.1055230876364192 0.06140145466389785 0.1945573676037552 -0.1679693439636753
  0.1958541196743178 -0.166318343338844 -0.105512619967357 0.06139573116154393 -0.08746523009695353 0.06391786229625125 -0.7099869759546001 -0.5860749318928492
  -0.1050177515359832 0.06073031014910985 0.1945716159357439 -0.1679812145451319 -0.7101072238980749 -0.5861782875956012 -0.08891905841706131 0.06317276814978572
6340000000 -0.1113785316252948 0.05010134416037996 -0.5768925357695524 -0.7182733463425984 0.1955313439027443 -0.1666185571405275 -0.1049785972761295 0.06102340370803612
  -0.5768923725175895 -0.7182731576479858 -0.1086107978223412 0.05407496960034849 -0.1054898694868913 0.06170082041237191 0.1942102453441541 -0.1682533266685389
  0.1955113722382243 -0.1666022532927528 -0.1054794045224841 0.06169506760166447 -0.0873203503227602 0.06402524021494965 -0.7110874460084438 -0.5847266729587179
  -0.1049864416157481 0.06102784750722667 0.1942244686471767 -0.1682652187429601 -0.711207888041879 -0.5848298002999474 -0.08877434945005545 0.06328390205640039
6345000000 -0.1113005736370123 0.05027495805130129 -0.5781214691762513 -0.7172688915271473 0.1951878110482061 -0.1669015207142288 -0.1049464574951857 0.06132106861208227
  -0.578121305477062 -0.7172687029808908 -0.108523259700477 0.05424849985502244 -0.1054558113306625 0.06200032895439021 0.1938623668979804 -0.1685363257982525
  0.1951678728724279 -0.1668851882653727 -0.1054453491530046 0.0619945468202918 -0.08717519085006621 0.06413220062524784 -0.7121854948405041 -0.5833763765445575
  -0.1049542999114903 0.06132553454236801 0.1938765651143718 -0.1685482392955389 -0.712306130553829 -0.5834792751658582 -0.0886293427155876 0.0633946237924809
6350000000 -0.1112221933080409 0.0504484257509316 -0.5793487682429256 -0.7162624059025958 0.1948435290569702 -0.1671835070036215 -0.1049134850884675 0.06161888076288388
  -0.5793486040964987 -0.7162622175056736 -0.1084352935081339 0.05442185843462369 -0.1054209122932573 0.06229997783187993 0.1935137351470934 -0.1688183391301156
  0.1948236244455182 -0.1671671460499299 -0.1054104529845296 0.06229416635959375 -0.087029752793958 0.06423874270346965 -0.7132811188232204 -0.5820240463565068
  -0.1049213255202065 0.0616233688368434 0.1935279082193935 -0.1688302739799986 -0.713401947805732 -0.5821267159000945 -0.0884840392887311 0.06350493247204309
6355000000 -0.111143390775727 0.05062174609678667 -0.5805744299403931 -0.7152538916325419 0.1944985008050447 -0.1674645138102866 -0.1048796791603455 0.06191683773897431
  -0.580574265346722 -0.7152537033859323 -0.1083468994692341 0.05459504414488014 -0.105385171507786 0.06259976458293291 0.1931643529805308 -0.1690993644499973
  0.19447862983322 -0.1674481244482289 -0.1053747151502575 0.06259392375790349 -0.08688403727226165 0.06434486562788204 -0.7143743143311514 -0.580669686106256
  -0.1048875175461965 0.06192134796901069 0.1931785008514855 -0.1691113205820385 -0.7144953361715144 -0.5807721262149695 -0.08833844024756747 0.06361482721085163
6360000000 -0.1110641661809152 0.05079491792430695 -0.5817984512397325 -0.7142433508833289 0.1941527291755478 -0.1677445389444131 -0.1048450388225094 0.06221493711495654
  -0.5817982861988108 -0.7142431627880098 -0.1082580778113754 0.05476805578982331 -0.1053485881149638 0.0628996867418295 0.1928142232944837 -0.1693793995523629
  0.1941328919183666 -0.1677281212706793 -0.1053381347909901 0.06289381654974284 -0.08673804540554901 0.06445056857870415 -0.715465077740965 -0.5793132995110671
  -0.1048528751010788 0.06221946951329638 0.1928283459070458 -0.1693913768959563 -0.7155862920272167 -0.5794155098283682 -0.08819254667319472 0.063724307126431
6365000000 -0.1109845196679732 0.05096794006686688 -0.5830208291122744 -0.7132307858240565 0.1938062170586813 -0.1680235802248279 -0.1048095631939844 0.06251317646152477
  -0.5830206636240967 -0.7132305978810084 -0.1081688287658548 0.05494089217179885 -0.1053111612631256 0.06319974183906139 0.1924633489922714 -0.1696584422403047
  0.1937864135908748 -0.1680071343363279 -0.105300711055148 0.0631938422658459 -0.08659177831714539 0.06455585073811829 -0.7165534054314456 -0.5779548902937957
  -0.1048173973038072 0.06251773104021789 0.1924774462896006 -0.1696704407246763 -0.7166748117509929 -0.5780568704637699 -0.08804635964973465 0.06383337133807818
6370000000 -0.1109044513848177 0.05114081135578442 -0.5842415605295882 -0.7122161986266011 0.1934589673517058 -0.1683016354790224 -0.1047732514011448 0.06281155334548465
  -0.5842413945941526 -0.7122160108368024 -0.108079152567692 0.05511355209147741 -0.1052728901082404 0.06349992740135579 0.1921117329843149 -0.1699364903255707
  0.1934391977477193 -0.1682851614728864 -0.1052624430987853 0.06349399843318206 -0.08644523713313529 0.06466071129027967 -0.7176392937834928 -0.5765944621829071
  -0.1047810832806876 0.06281613011640447 0.1921258049097787 -0.1699485098797789 -0.7177608917231133 -0.5766962118502649 -0.08789988026434108 0.0639420189668741
6375000000 -0.1108239614829389 0.05131353062033048 -0.5854606424634717 -0.7111995914656219 0.1931109829589141 -0.1685787025431822 -0.1047361025777341 0.06311006532977653
  -0.5854604760807779 -0.7111994038300549 -0.1079890494556516 0.05528603434786484 -0.1052337738139315 0.06380024095169927 0.1917593781881138 -0.1702135416285928
  0.1930912472929063 -0.1685622005167595 -0.1052233300856097 0.06379428257498035 -0.08629842298236894 0.06476514942132743 -0.718722739180122 -0.5752320189124994
  -0.1047439321653928 0.063114664304619 0.1917734246852872 -0.1702255821815299 -0.7188445283259635 -0.5753335377225754 -0.08775310960720724 0.06405024913569597
6380000000 -0.1107430501174254 0.05148609668773917 -0.5866780718859472 -0.7101809665185828 0.1927622667916054 -0.1688547792622181 -0.1046981158648772 0.06340870997349569
  -0.5866779050559967 -0.7101807790382269 -0.1078985196722668 0.0554583377383141 -0.1051938115514883 0.06410068000936062 0.1914062875282177 -0.1704895939785162
  0.1927425651374478 -0.1688382493130752 -0.1051833711869941 0.06409469221075331 -0.0861513369964696 0.06486916431939453 -0.7198037380064617 -0.5738675642223167
  -0.104705943098979 0.06341333116377962 0.1914203085408852 -0.1705016554589091 -0.719925717944045 -0.5739688518210736 -0.08760604877157335 0.0641580609692286
6385000000 -0.1106617174469905 0.05165850838321735 -0.587893845769242 -0.7091603259657601 0.1924128217680593 -0.1691298634897911 -0.1046592904110988 0.06370748483191488
  -0.5878936784920376 -0.7091601386415972 -0.1078075634638623 0.05563046105853561 -0.1051530024998841 0.06440124208991518 0.1910524639362021 -0.1707646452132282
  0.1923931541993355 -0.169113305715712 -0.1051425655819949 0.064395224856319 -0.08600398030983919 0.06497275517461891 -0.7208822866497605 -0.5725011018577761
  -0.1046671152299033 0.06371212824898098 0.1910664594083576 -0.1707767275496381 -0.7210044569639746 -0.5726021578918046 -0.08745869885373504 0.06426545359397839
6390000000 -0.1105799636339955 0.05183076452995533 -0.5891079610857857 -0.7081376719902598 0.1920626508135092 -0.1694039530883438 -0.1046196253723382 0.06400638745650521
  -0.5891077933613312 -0.7081374848232722 -0.107716181080577 0.0558024031026091 -0.1051113458457923 0.064701924705268 0.1906979103506425 -0.1710386931793873
  0.1920430174035136 -0.1693873675873288 -0.1051009124573671 0.06469587802382717 -0.08585635405966516 0.06507592117915414 -0.7219583814993817 -0.5711326355699844
  -0.1046274477140361 0.06401105311151623 0.190711880226489 -0.1710507963002108 -0.7220807417744907 -0.5712334596865003 -0.0873110609530492 0.06437242613828421
6395000000 -0.1104977888444763 0.05200286394913739 -0.5903204148081974 -0.7071130067780317 0.1917117568601154 -0.1696770459291278 -0.1045791199119657 0.06430541539495878
  -0.5903202466365015 -0.7071128197692023 -0.1076243727763873 0.05597416266299548 -0.1050688407836008 0.06500272536367939 0.1903426297170871 -0.1713117357324504
  0.1916921576818538 -0.1696604327993927 -0.1050584110075804 0.06499664922178189 -0.08570845938592694 0.06517866152718015 -0.7230320189468071 -0.5697621691157558
  -0.1045869397146813 0.06431010329889932 0.1903565739410384 -0.1713238595659193 -0.7231545687664468 -0.5698627609626052 -0.08716313617194323 0.06447897773233072
6400000000 -0.1104151932481676 0.05217480545995213 -0.591531203909275 -0.7060863325178842 0.1913601428469393 -0.1699491398922326 -0.1045377732007975 0.06460456619120949
  -0.5915310352903465 -0.7060861456681946 -0.1075321388091301 0.0561457385305479 -0.1050254865154295 0.06530364156978652 0.189986624988031 -0.1715837707367026
  0.1913405779731268 -0.169932499232207 -0.1050150604348344 0.06529753595506492 -0.08556029743140173 0.06528097541491432 -0.7241031953856394 -0.5683897062576334
  -0.1045455904025877 0.06460927635488534 0.1900005435047121 -0.1715959152108867 -0.7242259343328165 -0.5684900654832933 -0.08701492561592154 0.06458510750816096
6405000000 -0.1103321770185285 0.05234658787960378 -0.592740325361989 -0.7050576514014967 0.1910078117199158 -0.1702202328666133 -0.104495584417113 0.06490383738545616
  -0.5927401562958378 -0.7050574647119311 -0.1074394794405253 0.0563171294945246 -0.1049812822511429 0.06560467082462938 0.1896298991228901 -0.1718547960652849
  0.190988281222977 -0.1702035647749413 -0.1049708599490752 0.06559853572496172 -0.0854118693416719 0.06538286204062274 -0.7251719072115984 -0.5670152507639116
  -0.1045033989559692 0.06490856981949421 0.1896437918771371 -0.1718669611080908 -0.7252948348686954 -0.5671153770174868 -0.08686643039357386 0.06469081459968917
6410000000 -0.1102487403327675 0.0525182100233232 -0.5939477761394676 -0.7040269656234383 0.1906547664318267 -0.1704903227501195 -0.1044525527466691 0.06520322651418338
  -0.5939476066261068 -0.7040267790949801 -0.1073463949361997 0.05648833434260059 -0.1049362272083704 0.06590581062567404 0.1892724550879742 -0.1721248096002234
  0.1906352703838948 -0.1704736273256573 -0.1049258087680093 0.06589964602918305 -0.08526317626513022 0.06548432060463125 -0.7262381508225291 -0.5656388064086513
  -0.1044603645605163 0.06520798122903135 0.1892863220248353 -0.1721369951393955 -0.7263612667712994 -0.5657386993398809 -0.08671765161658115 0.0647960981427138
6415000000 -0.1101648833718672 0.05268967070437926 -0.5951535532149916 -0.7029942773811775 0.1903010099422732 -0.1707594074495233 -0.104408677382716 0.06550273111018415
  -0.595153383254435 -0.7029940910148115 -0.1072528855657091 0.05665935186088034 -0.1048903206125163 0.0662070584668365 0.1889142958564596 -0.1723938092324568
  0.1902815484151888 -0.1707426847913391 -0.1048799061171203 0.0662008643618909 -0.08511421935298698 0.06558535030933689 -0.727301922618396 -0.5642603769717042
  -0.1044164864094144 0.06550750811611014 0.1889281369211957 -0.1724060151955779 -0.727425226439969 -0.5643600362309572 -0.08656859039972425 0.06490095727493018
6420000000 -0.1100806063206097 0.05286096873409038 -0.5963576535619818 -0.7019595888751013 0.1899465452176489 -0.1710274848805469 -0.1043639575260138 0.06580234870258152
  -0.5963574831542455 -0.7019594026718129 -0.1071589516025614 0.05683018083391021 -0.1048435616967798 0.0665084118385081 0.1885554244083635 -0.1726617928618644
  0.1899271182829602 -0.1710107350879199 -0.1048331512296841 0.0665021882137225 -0.08496499975927536 0.0656859503592194 -0.7283632190012927 -0.5628799662387305
  -0.104371763703359 0.06580714800967413 0.1885692395464482 -0.1726740191763567 -0.7284867102761692 -0.5629793914770106 -0.08641924786089047 0.06500539113594439
6425000000 -0.1099959093676016 0.05303210292183635 -0.5975600741539897 -0.7009229023085293 0.1895913752311126 -0.1712945529678915 -0.1043183923848468 0.06610207681685115
  -0.5975599032990931 -0.700922716269303 -0.1070645933242396 0.05700082004469144 -0.1047959497021671 0.06680986822757823 0.188195843730515 -0.1729287583972947
  0.1895719829600741 -0.1712777761403114 -0.1047855433467848 0.06680361507181366 -0.08481551864085816 0.06578611996085268 -0.7294220363754351 -0.5614975780012197
  -0.1043261956505705 0.06610689843501887 0.1882096328876361 -0.1729410049904199 -0.7295457146834922 -0.5615967688701635 -0.08626962512108134 0.06510939886728614
6430000000 -0.1099107927052989 0.0532030720750704 -0.5987608119646908 -0.6998842198877259 0.1892355029625596 -0.1715606096452648 -0.1042719811750404 0.06640191297484364
  -0.5987606406626534 -0.6998840340135489 -0.1069698110122251 0.05717126827469318 -0.1047474838775092 0.06711142511746006 0.18783555681653 -0.1731947037565935
  0.1892161454261318 -0.1715438058824296 -0.1047370817173287 0.06710514241982447 -0.0846657771574343 0.06588585832291671 -0.730478371147168 -0.5601132160565129
  -0.1042797814668104 0.06640675691381438 0.1878493199385891 -0.1732069705554544 -0.7306022360676572 -0.5602121722083923 -0.08611972330441899 0.06521297961242249
6435000000 -0.1098252565300324 0.05337387499933143 -0.5999598639678709 -0.6988435438219217 0.1888789313985954 -0.171825652855408 -0.1042247231199745 0.06670185469480591
  -0.5999596922187145 -0.69884335811378 -0.1068746049520197 0.05734152430386562 -0.1046981634794752 0.06741307998811402 0.1874745666667822 -0.1734596268666313
  0.1888596086674439 -0.1718088222572248 -0.1046877655980609 0.06740676773796253 -0.08451577647154371 0.06598516465620917 -0.7315322197249678 -0.5587268842078186
  -0.1042325203753958 0.06670672096412708 0.1874883036998953 -0.1734719137981717 -0.7316562708365155 -0.55882560529554 -0.08596954353815364 0.06531613251677063
6440000000 -0.1097393010420321 0.05354451049825631 -0.6011572271374203 -0.6978008763233211 0.1885216635325068 -0.1720896805501251 -0.104176617450601 0.06700189949140446
  -0.6011570549411686 -0.6978006907822017 -0.106778975433169 0.05751158691065343 -0.1046479877725886 0.06771483031607292 0.187112876288376 -0.1737235256633314
  0.1885023756770013 -0.1720728232167079 -0.104637594253578 0.06770848850300777 -0.08436551774857469 0.06608403817365767 -0.7325835785194421 -0.5573385862642395
  -0.1041844116072164 0.06700678810044251 0.1871265871788746 -0.1737358326543362 -0.7327078154000498 -0.5574370719413471 -0.08581908695267165 0.06541885672771316
6445000000 -0.1096529264454525 0.05371497737359271 -0.6023528984473212 -0.696756219607125 0.1881637023642339 -0.1723526906903084 -0.1041276634054579 0.06730204487574716
  -0.6023527258040007 -0.6967560342340151 -0.106682922749285 0.05768145487200955 -0.1045969560292424 0.06801667357446649 0.186750488695119 -0.1739863980916977
  0.1881444494544483 -0.1723358067219782 -0.1045865669563474 0.06801030218833767 -0.0842150021567688 0.06618247809033093 -0.7336324439433327 -0.5559483260407864
  -0.104135454400748 0.06730695583368744 0.1867641733895506 -0.1739987250687946 -0.7337568661703776 -0.5560465759614608 -0.08566835468149994 0.06552115139461027
6450000000 -0.1095661329483977 0.05388527442521192 -0.6035468748716424 -0.6957095758915401 0.1878050509003426 -0.172614681245969 -0.1040778602306845 0.0676022883554059
  -0.6035467017812801 -0.6957093906874283 -0.106586447198069 0.0578511269634089 -0.1045450675297125 0.06831860723304514 0.1863874069074939 -0.1742482421058421
  0.1877858330060535 -0.1725977707432522 -0.1045346829867178 0.06831220626395099 -0.08406423086722802 0.06628048362345257 -0.7346788124115174 -0.5545561073584042
  -0.1040856480020688 0.06760722167125234 0.1864010653526218 -0.174260588995502 -0.7348034195617543 -0.5546541211774638 -0.08551734786131587 0.06562301566881465
6455000000 -0.1094789207629461 0.05405540045112191 -0.6047391533845258 -0.6946609473978008 0.187445712153995 -0.1728756501962609 -0.1040272071800375 0.06790262743443924
  -0.604738979847152 -0.6946607623636746 -0.1064895490813345 0.05802060195886243 -0.1044923215621748 0.06862062875820579 0.1860236339526308 -0.1745090556690117
  0.1874265293446821 -0.1728587132598884 -0.1044819416329379 0.06861419819649298 -0.08391320505391912 0.06637805399241163 -0.7357226803410155 -0.5531619340439886
  -0.104034991664875 0.06790758311701413 0.1860372660954353 -0.1745214223975494 -0.7358474719905732 -0.5532597114168927 -0.08536606763195205 0.06572444870368543
6460000000 -0.1093912901051754 0.05422535424748093 -0.6059297309601818 -0.6936103363501794 0.1870856891449221 -0.1731355955295106 -0.1039757035149057 0.06820305961341466
  -0.6059295569758276 -0.6936101514870282 -0.1063922287050293 0.05818987863093158 -0.1044387174227189 0.06892273561301557 0.1856591728642785 -0.1747688367536171
  0.1870665414897665 -0.1731186322604175 -0.1044283421911675 0.06891627544927979 -0.08376192589368099 0.06647518841877618 -0.7367640441509844 -0.5517658099304114
  -0.1039834846504942 0.06820803767135789 0.1856727786519571 -0.1747812232471916 -0.7368890198753709 -0.5518633505132562 -0.0852145151364041 0.06582544965460205
6465000000 -0.1093032411951874 0.0543951346086104 -0.6071186045728747 -0.6925577449760056 0.1867249848993946 -0.1733945152432431 -0.1039233485043241 0.06850358238943124
  -0.6071184301415729 -0.6925575602848187 -0.1062944863792588 0.05835895575074228 -0.1043842544153637 0.0692249252572379 0.1852940266827767 -0.175027583341259
  0.1867058724672783 -0.173377525742567 -0.1043738839654964 0.06921843548232345 -0.08361039456622989 0.06657188612630539 -0.7378029002627295 -0.5503677388565361
  -0.1039311262279025 0.06850858283120062 0.1853076060627448 -0.1750399895258745 -0.7379280596368282 -0.5504650423060614 -0.08506269152083723 0.06592601767897904
6470000000 -0.1092147742571332 0.05456474032700946 -0.6083057711969189 -0.6915031755056809 0.186363602450194 -0.1736524073442103 -0.103870141424991 0.06880419325614263
  -0.6083055963187048 -0.6915029909874478 -0.1061963224183082 0.05852783208800015 -0.1043289318520706 0.06952719514735631 0.1849281984550275 -0.175285293422756
  0.1863445253096999 -0.1736353917132911 -0.1043185662679562 0.06952067575235724 -0.0834586122541644 0.06666814634096214 -0.738839245099703 -0.5489677246672421
  -0.103877915673739 0.06880921609001361 0.1849417513749187 -0.1752977192242619 -0.7389645876977745 -0.5490647906408282 -0.08491059793459212 0.0660261519362801
6475000000 -0.1091258895192375 0.0547341701933684 -0.6094912278066665 -0.6904466301726953 0.1860015448365838 -0.1739092698484165 -0.1038160815612812 0.0691048897037794
  -0.609491052481579 -0.6904464458284059 -0.1060977371406657 0.05869650641100505 -0.1042727490527592 0.06982954273659926 0.1845616912344662 -0.1755419649981713
  0.1859825030559944 -0.1738922281887953 -0.1042623884185354 0.06982299371285955 -0.08330658014297271 0.06676396829092586 -0.7398730750875039 -0.5475657712134467
  -0.10382385227232 0.06910993493784452 0.1845752176421329 -0.1755544103422644 -0.7399986004831891 -0.5476625993691163 -0.08475823553019328 0.06612585158803291
6480000000 -0.1090365872138237 0.05490342299658314 -0.6106749713765024 -0.6893881112136432 0.1856388151042802 -0.1741651007811462 -0.1037611682052621 0.0694056692191722
  -0.610674795604579 -0.68938792704429 -0.1059987308690443 0.05886497748666623 -0.1042157053453229 0.07013196547496645 0.1841945080810332 -0.1757975960768399
  0.1856198087515772 -0.1741480331945638 -0.1042053497451949 0.07012538681407968 -0.08315429942103696 0.06685935120660554 -0.7409043866538897 -0.5461618823521227
  -0.1037689353156546 0.06941073686134085 0.1842080079245476 -0.1758100608890628 -0.7410300944202047 -0.5462584723485406 -0.08460560546335368 0.06622511579784374
6485000000 -0.1089468675773388 0.05507249752376944 -0.6118569988808292 -0.6883276208682415 0.1852754163054232 -0.1744198981769911 -0.1037054006567078 0.0697065292857742
  -0.6118568226621116 -0.6883274368748138 -0.1058993039304048 0.05903324408051754 -0.1041578000656405 0.07043446080925218 0.1838266520611453 -0.1760521846773953
  0.1852564454482869 -0.1744028047653877 -0.1041474495838827 0.07042785250306303 -0.08300177127963908 0.06695429432065229 -0.7419331762287721 -0.5447560619463218
  -0.1037131641034595 0.06971161934377233 0.1838401252887986 -0.1760646688831393 -0.7420590659381128 -0.5448524134427998 -0.08445270889298243 0.06632394373141222
6490000000 -0.1088567308503778 0.05524139256027766 -0.6130373072940655 -0.6872651613793423 0.1849113514985467 -0.1746736600798757 -0.1036487782231144 0.07000746738368457
  -0.6130371306285959 -0.6872649775628322 -0.1057994566559783 0.05920130495673311 -0.1040990325575949 0.07073702618307212 0.1834581262476654 -0.176305728827797
  0.1848924162043551 -0.1746565409453901 -0.1040886872785459 0.07073038822367561 -0.08284899691296736 0.06704879686797294 -0.7429594402442237 -0.5433483138651946
  -0.1036565379431738 0.07001257986505476 0.1834715728079699 -0.1763182323523013 -0.7430855114683637 -0.5434444265216876 -0.08429954698119094 0.06642233455654635
6495000000 -0.1087661772777087 0.05541010688970771 -0.6142158935906316 -0.686200734992954 0.1845466237485492 -0.1749263845430852 -0.1035913002197143 0.07030848098967066
  -0.614215716478455 -0.6862005513543538 -0.1056991893812886 0.05936915887814288 -0.1040394021730825 0.07103965903688725 0.1830889337198749 -0.1765582265653559
  0.1845277240843781 -0.1749092397880534 -0.1040290621811493 0.0710329914166296 -0.08269597751812009 0.06714285808574284 -0.7439831751344802 -0.5419386419840143
  -0.1035990561499741 0.0703136159017715 0.1831023535615637 -0.1765707493337092 -0.7441094274445735 -0.5420345154611235 -0.08414612089329893 0.06652028744317778
6500000000 -0.1086752071082968 0.05557863929392391 -0.6153927547449435 -0.6851343439582535 0.1841812361266642 -0.1751780696292909 -0.1035329659694916 0.07060956757719183
  -0.6153925771861068 -0.685134160498556 -0.1055985024461739 0.05953680460624833 -0.1039789082720321 0.07134235680802969 0.182719077563443 -0.1768096759367629
  0.1841623721592856 -0.1751608993562458 -0.1039685736516848 0.07133565951950857 -0.08254271429511295 0.0672364772134196 -0.7450043773359458 -0.5405270501841956
  -0.1035407180467883 0.07061472492719792 0.1827324706354702 -0.1768222178739035 -0.7451308103025251 -0.5406226841431697 -0.08399243179784112 0.06661780156337649
6505000000 -0.1085838205953295 0.05574698855307039 -0.616567887731405 -0.6840659905276073 0.1838151917104308 -0.1754287134105779 -0.1034737748031964 0.07091072461642241
  -0.6165677097259569 -0.6840658072478046 -0.1054973961948106 0.05970424090123903 -0.103917550222416 0.0716451169307285 0.1823485608703983 -0.1770600749981137
  0.1837963635063121 -0.1754115177222473 -0.1039072210581902 0.07163838996679299 -0.0823892084468827 0.0673296534927562 -0.7460230432871972 -0.5391135423533165
  -0.103481522964311 0.07091590441132356 0.1823619271219399 -0.1770726360288301 -0.7461496564801749 -0.5392089364560519 -0.08383848086657275 0.06671487609136674
6510000000 -0.1084920179962414 0.05591515344558681 -0.6177412895243987 -0.6829956769565859 0.183448493583662 -0.1756783139684697 -0.1034137260593589 0.0712119495742741
  -0.6177411110723894 -0.6829954938576721 -0.1053958709757343 0.05987146652200865 -0.1038553274002654 0.07194793683613399 0.1819773867390981 -0.1773094218149362
  0.183429701208967 -0.1756610929677766 -0.1038450037767595 0.07194118018988518 -0.08223546117929346 0.06742238616781454 -0.7470391694289829 -0.5376981223851408
  -0.1034214702410184 0.07121715182087605 0.1819907261195531 -0.1773220018638682 -0.7471659624176519 -0.5377932762941821 -0.08368426927447703 0.06681151020354197
6515000000 -0.1083997995727378 0.05608313274822368 -0.6189129570982771 -0.6819234055039799 0.1830811448364167 -0.1759268693939556 -0.1033528190843056 0.0715132399144207
  -0.6189127781997589 -0.6819232225869487 -0.1052939271418625 0.06003848022617141 -0.1037922391896851 0.07225081395234387 0.1816055582742 -0.1775577144622162
  0.1830623883570033 -0.1759096231840162 -0.1037819211915604 0.07224402761713544 -0.08208147370114202 0.0675146744849794 -0.7480527522042347 -0.5362807941796399
  -0.1033605592231824 0.07151846461934372 0.1816188707331893 -0.1775703134538552 -0.7481797245572681 -0.5363757075581815 -0.08352979819976958 0.06690770307848067
6520000000 -0.1083071655908199 0.05625092523605879 -0.6200828874273524 -0.6808491784318214 0.1827131485649681 -0.1761743777875162 -0.1032910532321714 0.07181459309731943
  -0.6200827080823804 -0.6808489956976671 -0.1051915650505169 0.06020528077007896 -0.1037282849828658 0.07255374570442866 0.1812330785866304 -0.177804951024424
  0.1826944280463883 -0.1761571064716397 -0.1037179726948455 0.07254692967386668 -0.08192724722416252 0.06760651769297224 -0.7490637880580673 -0.5348615616430116
  -0.1032987892648844 0.07181984026699903 0.1812463640739989 -0.1778175688831141 -0.749190939343518 -0.5349562341548996 -0.08337506882390533 0.06700345389696188
6525000000 -0.108214116320809 0.05641852968251294 -0.6212510774858939 -0.6797729980053956 0.1823445078717736 -0.1764208372591498 -0.1032284278649158 0.07211600658023583
  -0.6212508976945245 -0.6797728154551125 -0.1050887850634454 0.06037186690883729 -0.1036634641800995 0.07285672951445754 0.1808599507935555 -0.1780511295955399
  0.1823258233792729 -0.176403540940837 -0.1036531576869681 0.07284988378240108 -0.08177278296303149 0.0676979150428645 -0.7500722734377824 -0.5334404286877058
  -0.103236159728031 0.07212127622092207 0.1808732092593716 -0.1780637662454784 -0.7501996032230855 -0.5335348599974358 -0.08322008233158446 0.06709876184198141
6530000000 -0.108120652037371 0.05658594485936684 -0.6224175242481156 -0.678694866493263 0.1819752258654441 -0.1766662459283972 -0.103164942352337 0.07241747781726672
  -0.6224173440104058 -0.6786946841278466 -0.1049855875468444 0.06053823739632386 -0.1035977761897923 0.07315976280152295 0.1804861780183506 -0.178296248279082
  0.181956577463961 -0.1766489247113403 -0.1035874755763947 0.07315288736208453 -0.08161808213537347 0.06778886578809244 -0.7510782047928766 -0.5320173992324427
  -0.1031726699823682 0.0724227699350239 0.1804994094129076 -0.1783089036443199 -0.7512057126448479 -0.5321115890051639 -0.08306483991075754 0.06719362609876696
6535000000 -0.1080267730195407 0.05675316953677727 -0.6235822246881675 -0.6776147861672737 0.1816053056607138 -0.1769106019243686 -0.1031005960720857 0.07271900425936334
  -0.623582044004178 -0.6776146039877193 -0.1048819728713803 0.06070439098520475 -0.1035312204284803 0.07346284298176819 0.1801117633905703 -0.178540305188129
  0.1815866934148788 -0.1768932559124493 -0.1035209257797205 0.07345593782931355 -0.08146314596176575 0.06787936918447086 -0.7520815785750432 -0.5305924772022389
  -0.1031083194054946 0.07272431886006998 0.1801249676643854 -0.1785529791925722 -0.7522092640598805 -0.5306864251037527 -0.08290934275263227 0.06728804585479542
6540000000 -0.107932479550746 0.0569202024832942 -0.6247451757801297 -0.6765327593025868 0.1812347503784087 -0.1771539033857692 -0.1030353884096799 0.07302058335435527
  -0.6247449946499226 -0.6765325773098909 -0.1047779414122122 0.06087032642695243 -0.1034637963208399 0.0737659674684112 0.1797367100459173 -0.1787832984453491
  0.1812161743525441 -0.1771365326830581 -0.1034535077216814 0.07375903259755999 -0.08130797566574324 0.06796942449020725 -0.7530823912381776 -0.5291656665284233
  -0.1030431073828772 0.07302592044370362 0.179749887149734 -0.1787959910127581 -0.7532102539214608 -0.5292593722251866 -0.08275359205167798 0.06738202029980753
6545000000 -0.1078377719188323 0.0570870424658779 -0.6259063744980052 -0.6754487881776877 0.1808635631454162 -0.1773961484609231 -0.1029693187585187 0.07332221254697373
  -0.6259061929216452 -0.6754486063728461 -0.1046734935490134 0.06103604247186354 -0.1033955032997052 0.0740691336717719 0.1793610211262124 -0.1790252261830232
  0.1808450234035351 -0.1773787531716792 -0.1033852208351681 0.07406216907739779 -0.08115257247380345 0.06805903096591638 -0.7540806392383826 -0.527736971148665
  -0.102977033307864 0.07332757213046971 0.1793741710109992 -0.1790379372370152 -0.7542086786850736 -0.5278304343077892 -0.08259758900563238 0.06747554862582544
6550000000 -0.1077426504160864 0.05725368824991606 -0.6270658178157112 -0.6743628750744052 0.1804917470946534 -0.1776373353078004 -0.1029023865198965 0.07362388927887523
  -0.6270656357932625 -0.6743626934584147 -0.1045686296659931 0.06120153786907671 -0.1033263408060774 0.07437233899929678 0.1789846997793632 -0.1792660865430726
  0.1804732437004593 -0.1776199155364695 -0.1033160645612403 0.07436534467652815 -0.08099693761541059 0.06814818787463478 -0.7550763190339758 -0.5263063950069929
  -0.1029100965816996 0.07362927136183815 0.1789978223963153 -0.1792788160071209 -0.7552045348084195 -0.5263996152962445 -0.08244133481550611 0.06756863002716861
6555000000 -0.1076471153392609 0.05742013859924142 -0.6282235027070691 -0.67327502227793 0.180119305365036 -0.1778774620940415 -0.1028345911030176 0.07392561098866565
  -0.6282233202386011 -0.6732748408517886 -0.1044633501519183 0.06136681136659063 -0.1032563082891436 0.07467558085558615 0.1786077491593334 -0.1795058776770826
  0.1801008383819222 -0.1778600179452558 -0.1032460383491405 0.07466855679980579 -0.08084107232300176 0.06823689448183523 -0.7560694270854914 -0.5248739420538145
  -0.1028422966135387 0.07393101557622807 0.1786208444598725 -0.1795186254745179 -0.7561978187514142 -0.5249669191416196 -0.08228483068558846 0.06766126370046995
6560000000 -0.1075511669895981 0.05758639227614942 -0.6293794261458004 -0.6721852320768328 0.1797462411014476 -0.1781165269969826 -0.1027659319250096 0.07422737511192355
  -0.6293792432313816 -0.6721850508415373 -0.1043576554001361 0.06153186171128269 -0.1031854052062845 0.07497885664241959 0.1782301724261119 -0.1797445977463284
  0.1797278105924964 -0.1780990585755594 -0.1031751416563051 0.07497180284926504 -0.08068497783199027 0.06832515005544139 -0.7570599598556853 -0.5234396162459466
  -0.1027736328204595 0.07423280220903059 0.178243240361887 -0.1797573638003399 -0.7571885269761991 -0.5235323498013863 -0.08212807782345288 0.06775344884469348
6565000000 -0.1074548056728542 0.05775244804141636 -0.630533585105518 -0.6710935067630829 0.1793725574547065 -0.178354528203681 -0.1026964084109378 0.07452917908122426
  -0.6305334017452203 -0.6710933257196315 -0.1042515458085944 0.06169668764892745 -0.1031136310230926 0.07528216375878152 0.1778519727456815 -0.1799822449218012
  0.1793541634826895 -0.1783370356146212 -0.1031033739483816 0.07527508022414608 -0.08052865538077045 0.06841295386584292 -0.7580479138095471 -0.5220034215466275
  -0.1027041046274796 0.0745346286926339 0.1778650132685696 -0.1799950291554364 -0.7581766559471455 -0.5220959112394427 -0.08197107743996185 0.06784518466115021
6570000000 -0.1073580316993227 0.05791830465431728 -0.6316859765597163 -0.6699998486320652 0.1789982575815364 -0.178591463910939 -0.1026260199938186 0.07483102032616339
  -0.6316857927536146 -0.669999667781456 -0.1041450217798642 0.06186128792421517 -0.1030409852133821 0.07558549960088844 0.1774731532899875 -0.1802188173842319
  0.1789799002089123 -0.1785739472594275 -0.103030734699238 0.07557838632092086 -0.0803721062107228 0.06850030518591003 -0.7590332854142969 -0.5205653619255469
  -0.102633711467567 0.07483649245644602 0.1774861663520931 -0.1802316197203976 -0.7591622021308584 -0.5206576074261389 -0.0818138307492724 0.06793647035351529
6575000000 -0.1072608453838592 0.05808396087264468 -0.6328365974817689 -0.6689042599825991 0.178623344644532 -0.1788273323253288 -0.1025547661146343 0.07513289627338117
  -0.6328364132299384 -0.668904079325831 -0.1040380837211605 0.06202566128077124 -0.1029674672592038 0.07588886156221424 0.1770937172369059 -0.1804543133241171
  0.1786050239334473 -0.178809791716733 -0.1029572233909783 0.07588171853331886 -0.0802153315662177 0.06858720329100886 -0.7600160711393984 -0.5191254413588624
  -0.1025624527816569 0.07513839092691948 0.1771067027905629 -0.1804671336855805 -0.7601451619961855 -0.5192174423382938 -0.08165633896884114 0.06802730512784545
6580000000 -0.1071632470459041 0.05824941545272698 -0.6339854448449179 -0.6678067431169579 0.1782478218121289 -0.1790621316632191 -0.102482646222346 0.07543480434658627
  -0.6339852601474342 -0.6678065626550307 -0.1039307320443646 0.06218980646117513 -0.102893076650858 0.07619224703351669 0.1767136677702131 -0.1806887309417428
  0.1782295378244171 -0.1790445672030868 -0.102882839513955 0.07618507425235421 -0.08005833269462022 0.06867364745901655 -0.7609962674565612 -0.5176836638292306
  -0.1024903280186636 0.07544032152757481 0.1767266257679836 -0.1807015692511322 -0.7611255320142205 -0.5177754199592225 -0.08149860331942889 0.06811768819259552
6585000000 -0.1070652370095072 0.05841466714944732 -0.6351325156222645 -0.6667073003408865 0.1778716922585711 -0.1792958601507968 -0.1024096597739074 0.07573674196658023
  -0.6351323304792088 -0.6667071200747998 -0.1038229671660444 0.06235372220697979 -0.1028178128869074 0.07649565340286439 0.1763330080795522 -0.1809220684472109
  0.1778534450557512 -0.1792782719448568 -0.1028075825667818 0.07648845086635134 -0.07990111084629413 0.06875963697033635 -0.7619738708397488 -0.5162400333258175
  -0.102417336635495 0.07574228167902496 0.1763459384742285 -0.180934924627016 -0.7621033086583119 -0.5163315442787574 -0.08134062502510549 0.06820761875863575
6590000000 -0.1069668156033507 0.05857971471626264 -0.6362778067867672 -0.6656059339636197 0.1774949591638782 -0.1795285160240932 -0.1023358062342792 0.07603870655128067
  -0.6362776211982195 -0.6656057538943725 -0.1037147895074769 0.06251740725873112 -0.10274167547419 0.0767990780556622 0.1759517413604027 -0.1811543240604621
  0.1774767488071551 -0.1795109041782533 -0.102731452056348 0.07679184576097246 -0.07974366727460609 0.06884517110791299 -0.7629488777651831 -0.5147945538443309
  -0.1023434780970661 0.07604426879899953 0.175964644105007 -0.1811671980330345 -0.7630784884040687 -0.5148858192932677 -0.08118240531325541 0.06829709603926985
6595000000 -0.1068679831607736 0.05874455690522334 -0.6374213153112318 -0.6645026462979023 0.1771176257138129 -0.1797600975290073 -0.1022610850764421 0.07634069551574621
  -0.6374211292772766 -0.664502466426495 -0.1036061994946681 0.06268086035598826 -0.1026646639278312 0.07710251837467826 0.1755698708140475 -0.1813854960113008
  0.1770994522640771 -0.1797424621493547 -0.1026544474978289 0.07709525631924227 -0.07958600323593029 0.06893024915724885 -0.7639212847113542 -0.5133472293870391
  -0.1022687518763127 0.07634628030236826 0.1755827458618328 -0.1813983876988559 -0.7640510677293634 -0.5134382490056865 -0.08102394541458138 0.06838611925025154
6600000000 -0.1067687400197943 0.05890919246699224 -0.6385630381683046 -0.6633974396600064 0.17673969509985 -0.1799906029213312 -0.1021854957814107 0.07664270627220074
  -0.6385628516890266 -0.6633972599874406 -0.1034971975583752 0.062844080237343 -0.1025867777712591 0.07740597174007074 0.1751873996475421 -0.1816155825394209
  0.1767215586176759 -0.1799729441141293 -0.1025765684147005 0.07739867992157587 -0.07942811998965162 0.06901487040641849 -0.7648910881590238 -0.5118980639627945
  -0.1021931574542047 0.0766483136011659 0.1752002469519914 -0.1816284918640369 -0.765021043114344 -0.5119888374255325 -0.08086524656310964 0.06847468760980287
6605000000 -0.1066690865231345 0.05907362015086466 -0.6397029723304666 -0.6622903163697522 0.1763611705191422 -0.1802200304667728 -0.1021090378382465 0.07694473623005747
  -0.6397027854059529 -0.6622901368970289 -0.1033877841341273 0.06300706564044053 -0.1025080165362144 0.07770943552941346 0.17480433107368 -0.1818445818944271
  0.1763430710647882 -0.1802023483384616 -0.1024978143387529 0.0777021139458051 -0.07927001879817046 0.06909903414608509 -0.7658582845912323 -0.5104470615870551
  -0.1021166943197601 0.07695036610461652 0.1748171505885086 -0.1818575087780481 -0.7659884110414387 -0.5105375885689287 -0.08070630999619437 0.0685628003386316
6610000000 -0.1065690230182428 0.05923783870478821 -0.6408411147700239 -0.6611812787505262 0.1759820551744881 -0.1804483784409797 -0.102031710744072 0.07724678279594295
  -0.6408409274003636 -0.6611810994786463 -0.1032779596622461 0.06316981530199936 -0.1024283797627648 0.07801290711772382 0.1744206683109633 -0.1820724923358622
  0.1759639928078959 -0.1804306730981756 -0.1024181848101006 0.07800555576720447 -0.07911170092690571 0.06918273966951624 -0.7668228704933095 -0.5089942262819074
  -0.1020393619700582 0.07725243521915727 0.1744334599901178 -0.1820854367002957 -0.7669531679953632 -0.5090845064586311 -0.08054713695452165 0.0686504566599492
6615000000 -0.1064685498573175 0.05940184687538325 -0.6419774624591064 -0.6600703291293004 0.1756023522742987 -0.1806756451295642 -0.1019535140040839 0.07754884337372202
  -0.6419772746443901 -0.6600701500592663 -0.1031677245878671 0.06333232795783261 -0.1023478669993163 0.0783163838774885 0.1740364145835671 -0.1822993121332289
  0.1755843270550929 -0.1806579166790575 -0.102337679377197 0.07830900275851929 -0.07895316764429962 0.06926598627259947 -0.7677848423528771 -0.5075395620760923
  -0.101961159910253 0.07755451834846358 0.1740491783812267 -0.18231227390015 -0.7679153104631243 -0.5076295951240472 -0.08038772868211454 0.06873765579948862
6620000000 -0.10636766739733 0.05956564340796291 -0.6431120123696543 -0.6589574698366523 0.1752220650325653 -0.1809018288281264 -0.1018744471315659 0.07785091536452221
  -0.6431118241099757 -0.658957290969465 -0.1030570793609604 0.06349460234286812 -0.1022664778026281 0.07861986317869091 0.1736515731213091 -0.1825250395660153
  0.1752040770200525 -0.1808840773768804 -0.1022562975968461 0.07861245228999041 -0.07879442022182055 0.06934877325385901 -0.7687441966598604 -0.5060830730050232
  -0.1018820876535864 0.07785661289347294 0.1736643089918857 -0.1825380186569638 -0.7688748349340352 -0.5061728586012609 -0.08022808642633643 0.06882439698552262
6625000000 -0.1062663760000477 0.05972922704655402 -0.6442447614734196 -0.6578427032067821 0.1748411966688257 -0.1811269278422763 -0.1017945096479026 0.07815299616675797
  -0.644244572768873 -0.6578425245434452 -0.1029460244363511 0.06365663719117001 -0.102184211737822 0.07892334238883707 0.1732661471596158 -0.1827496729237161
  0.1748232459219942 -0.1811091534974281 -0.1021740390342141 0.07891590172938279 -0.07863545993396709 0.06943109991447102 -0.7697009299064893 -0.5046247631108134
  -0.1018021447214011 0.07815871625240967 0.1732788550577543 -0.1827626692601011 -0.7698317378997157 -0.5047143009330546 -0.08006821143789608 0.06891067944888152
6630000000 -0.1061646760320578 0.05989259653391782 -0.6453757067419525 -0.6567260315775365 0.1744597504081306 -0.1813509404876595 -0.1017137010825926 0.07845508317615549
  -0.6453755175926351 -0.6567258531190528 -0.1028345602737405 0.06381843123595975 -0.1021010683783958 0.07922681887298409 0.1728801399394894 -0.18297321050586
  0.1744418369856498 -0.1813331433565167 -0.1020909032628451 0.07921934844201217 -0.07847628805827175 0.06951296555828092 -0.7706550385873164 -0.503164636442295
  -0.1017213306431549 0.07846082582080977 0.1728928198200684 -0.1829862240089574 -0.7707860158541012 -0.5032539261689332 -0.07990810497085041 0.06899650242297217
6635000000 -0.1060625678647889 0.06005575061157096 -0.6465048451465993 -0.6556074572904249 0.1740777294810116 -0.1815738650899787 -0.1016320209732617 0.0787571737857774
  -0.6465046555526097 -0.6556072790377975 -0.1027226873377261 0.06397998320963762 -0.102017047306238 0.07953028999376507 0.1724935547074758 -0.183195650622029
  0.174059853441231 -0.1815560452800195 -0.1020068898646691 0.07952278979077064 -0.07831690587530368 0.06959436949181866 -0.7716065191992126 -0.5017026970550467
  -0.1016396449564336 0.07876293899154527 0.1725062065256079 -0.1832086812129838 -0.771737665293455 -0.5017917383651458 -0.07974776828260965 0.06908186514379558
6640000000 -0.1059600518745353 0.06021868801980707 -0.6476321736584956 -0.6544869826906407 0.1736951371234452 -0.1817956999850177 -0.1015494688656749 0.07905926538604706
  -0.6476319836199346 -0.6544868046448731 -0.102610406097822 0.06414129184380435 -0.101932148111636 0.07983375311141794 0.1721063947156296 -0.1834169915918849
  0.1736772985243951 -0.1817778576038897 -0.101921998430016 0.07982622313615526 -0.07815731466867304 0.06967531102431623 -0.7725553682413862 -0.500238949011411
  -0.1015570872069624 0.07906505315484914 0.1721190184266621 -0.1834300391917125 -0.7726866827163706 -0.500327741584711 -0.07958720263394002 0.06916676684996624
6645000000 -0.1058571284424787 0.0603814074977178 -0.6487576892485576 -0.6533646101270801 0.1733119765768223 -0.1820164435186631 -0.1014660443137516 0.07936135536477409
  -0.6487574987655291 -0.6533644322891768 -0.1024977170284798 0.06430235586928298 -0.1018463703932914 0.08013720558381139 0.1717186632214829 -0.1836372317451915
  0.1732941754762118 -0.1819985786741838 -0.1018362285576297 0.08012964583629419 -0.07799751572503327 0.06975578946772348 -0.7735015822153816 -0.4987733963805235
  -0.1014736569486217 0.07936716569833981 0.1717312587809976 -0.1836502962747765 -0.773633064623782 -0.4988619398974366 -0.07942640928896846 0.0692512067827299
6650000000 -0.105753797954711 0.06054390778321511 -0.649881388887483 -0.6522403419523638 0.1729282510879114 -0.1822360940469298 -0.1013817468795766 0.07966344110717834
  -0.64988119796009 -0.6522401643233281 -0.1023846206091083 0.06446317401614104 -0.1017597137583298 0.08044064476647267 0.1713303634880097 -0.1838563694218373
  0.1729104875431285 -0.1822182068470823 -0.1017495798546759 0.08043305524697393 -0.07783751033408505 0.06983580413672548 -0.774445157625096 -0.4973060432383327
  -0.1013893537434575 0.07966927400704606 0.1713429308518243 -0.1838694508019354 -0.7745768075189761 -0.4973943373799474 -0.07926538951518539 0.06933518418598326
6655000000 -0.1056500608022578 0.06070618761305268 -0.6510032695457352 -0.6511141805228555 0.1725439639088268 -0.1824546499359801 -0.1012965761334138 0.07996551999591534
  -0.6510030781740848 -0.6511140031036929 -0.1022711173240943 0.06462374501371264 -0.1016721778223144 0.08074406801261394 0.1709414987835943 -0.1840744029718585
  0.1725262379769379 -0.1824367404889156 -0.1016620519367588 0.08073644872166781 -0.0776772997885791 0.06991535434875881 -0.7753860909767797 -0.4958368936676231
  -0.1013041771616959 0.07997137546343211 0.170954037907762 -0.1840875011230978 -0.7755179079075931 -0.495924938115704 -0.07910414458344857 0.06941869830629206
6660000000 -0.1055459173810995 0.06086824572284845 -0.6521233281935466 -0.6499861281986831 0.1721591182969934 -0.1826721095621496 -0.1012105316537189 0.08026758941110108
  -0.6521231363777478 -0.6499859509903985 -0.1021572076628213 0.06478406759062107 -0.1015837622092572 0.08104747267316073 0.1705520723819963 -0.1842913307554629
  0.1721414300347427 -0.1826541779761841 -0.1015736444279288 0.08103982361156011 -0.07751688538431911 0.06999443942402873 -0.7763243787790548 -0.4943659517580408
  -0.1012181267817555 0.08027346744742239 0.1705645832228063 -0.1843044455983436 -0.7764563622976411 -0.4944537461950282 -0.07894267576798616 0.06950174839291035
6665000000 -0.1054413680921944 0.06103008084710681 -0.6532415618009081 -0.6488561873437594 0.1717737175151129 -0.1828884713119671 -0.1011236130271523 0.08056964673033679
  -0.6532413695410701 -0.6488560103473576 -0.1020428921196913 0.06494414047480136 -0.1014944665516309 0.08135085609677808 0.1701620875623169 -0.1845071511430509
  0.1717560669789219 -0.1828705176955811 -0.1014843569606972 0.08134317726557692 -0.07735626842016438 0.07007305868552602 -0.7772600175429134 -0.4928932216061129
  -0.1011312021902598 0.0805755473364265 0.1701745700762957 -0.1845202825979465 -0.7773921671995048 -0.4929807657151287 -0.07878098434640055 0.06958433369779961
6670000000 -0.1053364133415015 0.06119169171924138 -0.6543579673375635 -0.6477243603258009 0.1713877648311298 -0.1831037335821785 -0.1010358198485921 0.0808716893287344
  -0.6543577746338007 -0.6477241835422874 -0.1019281711941431 0.06510396239352327 -0.1014042904903805 0.08165421562989862 0.1697715476089658 -0.1847218625152394
  0.1713701520770966 -0.1830857580440166 -0.101394189176046 0.08164650703041156 -0.07719545019803349 0.07015121145904459 -0.7781930037817322 -0.4914187073152767
  -0.1010434029820505 0.08087761250536417 0.1697840017528763 -0.1847350105023977 -0.7783253191259505 -0.4915060007801193 -0.07861907159967112 0.06966645347564816
6675000000 -0.1052310535400011 0.06135307707159755 -0.6554725417730073 -0.64659064951635 0.1710012635181961 -0.1833178947797687 -0.1009471517211457 0.08117371457894146
  -0.6554723486254319 -0.6465904729467316 -0.101813045390673 0.0652635320734143 -0.1013132336749349 0.08195754861674949 0.1693804558116258 -0.184935463262884
  0.170983688602095 -0.1832998974286371 -0.1013031407234411 0.08194981025055194 -0.07703443202290622 0.07022889707319824 -0.7791233340112832 -0.4899424129958981
  -0.1009547287601999 0.08117966032669126 0.1693928815424686 -0.1849486277024271 -0.7792558145921403 -0.490029455501048 -0.07845693881215714 0.06974810698389002
6680000000 -0.1051252891037188 0.06151423563547593 -0.6565852820764762 -0.6454550572907957 0.1706142168546381 -0.1835309533219821 -0.1008576082561639 0.08147571985116635
  -0.6565850884852059 -0.6454548809360786 -0.1016975152188538 0.06542284824048306 -0.1012212957632189 0.08226085239938052 0.16898881546522 -0.1851479517871006
  0.1705966798319191 -0.1835129342668499 -0.1012112112608429 0.0822530842683088 -0.07687321520282629 0.07030611485943804 -0.7800510047497391 -0.4884643427652964
  -0.1008651791360233 0.08148168817042338 0.1690012127402336 -0.1851611325990262 -0.7801836501156373 -0.488551133995915 -0.0782945872716005 0.0698292934827244
6685000000 -0.1050191204537458 0.06167516614115516 -0.6576961852169442 -0.6443175860283935 0.1702266281239203 -0.1837429076363472 -0.1007671890732518 0.08177770251320327
  -0.6576959911820986 -0.6443174098895834 -0.1015815811933547 0.06558190962014256 -0.1011284764216639 0.08256412431769085 0.1685966298698762 -0.1853593264992887
  0.1702091290497087 -0.1837248669863425 -0.1011184004547183 0.08255632642384267 -0.07671180104890422 0.07038286415207007 -0.7809760125176831 -0.4869845007477708
  -0.1007747537290921 0.08178369340416254 0.1686089986465377 -0.1853725236034708 -0.7811088222164175 -0.4870710403897021 -0.07813201826912956 0.06991001223513575
6690000000 -0.1049125480162618 0.06183586731791573 -0.6588052481631206 -0.6431782381122859 0.1698385006146117 -0.1839537561606962 -0.1006758938002827 0.08207965993045811
  -0.658805053684819 -0.6431780621903911 -0.1014652438339605 0.06574071493723405 -0.1010347753252205 0.08286736170945748 0.1682039023308937 -0.185569585821152
  0.1698210395437073 -0.183935694025107 -0.1010247079800514 0.08285953405519188 -0.07655019087531939 0.07045914428827298 -0.7818983538381234 -0.4855028910746204
  -0.1006834521672455 0.08208567339312146 0.1682162425669183 -0.1855827991373412 -0.782031327416879 -0.4855891788143907 -0.07796923309926052 0.06999026250691247
6695000000 -0.104805572222556 0.06199633789406346 -0.6599124678834413 -0.6420370159295252 0.1694498376203505 -0.1841634973431859 -0.1005837220734095 0.08238158946597286
  -0.6599122729618062 -0.6420368402255515 -0.1013485036655912 0.06589926291605087 -0.100940192157368 0.0831705619103619 0.1678106361587071 -0.1857787281847211
  0.1694324146072269 -0.1841454138314594 -0.1009301335203555 0.08316270449830016 -0.07638838599932239 0.07053495460811526 -0.782818025236497 -0.4840195178841685
  -0.1005912740866033 0.08238762550014976 0.1678229478120498 -0.1857919576325466 -0.7829511622418501 -0.4841055534089908 -0.07780623305990068 0.07007004356666761
6700000000 -0.1046981935090496 0.06215657659695357 -0.6610178413460651 -0.6408939218710928 0.1690606424398091 -0.1843721296423228 -0.100490673537078 0.08268348848045227
  -0.661017645981219 -0.6408937463860485 -0.1012313612183207 0.06605755228036252 -0.1008447266101279 0.08347372225401908 0.1674168346688537 -0.1859867520323757
  0.1690432575386139 -0.1843540248640625 -0.1008346767676834 0.08346583508704372 -0.07622638774123745 0.07061029445457323 -0.7837350232406837 -0.4825343853217887
  -0.1004982191315786 0.08268954708575882 0.1674291176977083 -0.1859999975313448 -0.7838683232186038 -0.4826201683195597 -0.07764301945235071 0.07014935468585821
6705000000 -0.1045904123173164 0.06231658215301476 -0.6621213655188688 -0.6397489583319219 0.1686709183766587 -0.1845796515269802 -0.1003967478440379 0.08298535433228821
  -0.6621211697109404 -0.6397487830668144 -0.1011138170273965 0.0662155817534389 -0.100748378384073 0.08377684007200371 0.1670225011819364 -0.1861936558168657
  0.1686535716412124 -0.184561525591947 -0.1007383374226404 0.08376892315325993 -0.07606419742446442 0.07068516317354911 -0.7846493443810133 -0.4810474975399254
  -0.1004042869548893 0.0829914355081473 0.1670347555447374 -0.1862069172863645 -0.7847828068768606 -0.4811330276992303 -0.07747959358130768 0.07022819513880517
6710000000 -0.1044822290941048 0.06247635328777352 -0.6632230373694452 -0.6386021277109173 0.1682806687395344 -0.1847860614764217 -0.1003019446553562 0.0832871843775858
  -0.6632228411185603 -0.6386019526667557 -0.1009958716332579 0.06637335005807486 -0.1006511471883396 0.08407991269387942 0.166627639023591 -0.1863994380013318
  0.1682633602233304 -0.1847679144945314 -0.1006411151943939 0.08407196602677477 -0.07590181637548085 0.07075956011388894 -0.7855609851902783 -0.479558858698123
  -0.1003094772175708 0.08329328812322652 0.1666398646790129 -0.1864127153606272 -0.7856946097488078 -0.4796441357082312 -0.07731595675486604 0.07030656420271371
6715000000 -0.1043736442913587 0.06263588872587864 -0.6643228538650925 -0.6374534324109787 0.1678898968420003 -0.1849913579803221 -0.1002062636404287 0.08358897597018865
  -0.6643226571713835 -0.6374532575887709 -0.1008775255815554 0.06653085591661483 -0.1005530327406388 0.08438293744722598 0.1662322515244495 -0.1866040970593286
  0.1678726265982036 -0.1849731900616453 -0.1005430098006836 0.08437496103543013 -0.07573924592384351 0.07083348462740019 -0.7864699422037453 -0.4780684729630404
  -0.1002137895889888 0.08359510228464692 0.1662444484314075 -0.1866173902275676 -0.786603728369103 -0.4781534965139132 -0.07715211028451972 0.07038446115769323
6720000000 -0.1042646583662389 0.06279518719112602 -0.6654208119728167 -0.6363028748390203 0.1674986060025126 -0.1851955395387873 -0.1001097044769924 0.08389072646170508
  -0.6654206148364147 -0.6363027002397748 -0.1007587794231692 0.06668809805097767 -0.1004540347672653 0.08468591165766726 0.1658363420201058 -0.186807631474844
  0.1674813740839602 -0.1851773507935472 -0.1004440209678347 0.08467790550511299 -0.07557648740219097 0.07090693606887062 -0.7873762119591616 -0.4765763445084843
  -0.1001172237468496 0.08389687534382265 0.1658485101377563 -0.1868209403710557 -0.7875101592748877 -0.4766611142907729 -0.07698805548516632 0.07046188528677746
6725000000 -0.1041552717811439 0.06295424740648385 -0.666516908659323 -0.6351504574059935 0.1671067995443856 -0.1853986046623762 -0.1000122668511372 0.08419243320153288
  -0.6665167110803621 -0.6351502830307192 -0.100639633714228 0.06684507518268182 -0.1003541530031118 0.08498883264889937 0.1654399138510799 -0.1870100397423219
  0.167089606003585 -0.1853803952009486 -0.1003441484307673 0.08498079675978235 -0.07541354214624404 0.07097991379608599 -0.7882797909967709 -0.4750824775154288
  -0.1000197793772137 0.08419860464995775 0.1654520531388207 -0.1870233642854176 -0.7884138990057972 -0.4751669932204735 -0.07682379367510557 0.07053883587594516
6730000000 -0.1040454850037313 0.06311306809411757 -0.6676111408910129 -0.6339961825269087 0.1667144807957547 -0.18560055187212 -0.09991395045731841 0.0844940935368861
  -0.667610942869629 -0.6339960083766146 -0.1005200890161269 0.06700178603287053 -0.100253387191676 0.08529169774271841 0.1650429703627831 -0.1872113203666815
  0.1666973256848848 -0.1855823218050321 -0.1002433919330068 0.08528363212149749 -0.075250411494809 0.071052417169849 -0.7891806758593203 -0.4735868761720403
  -0.09992145617450719 0.08450028755007175 0.1650550807802538 -0.1872246604754551 -0.789314944103976 -0.473671137491874 -0.07665932617604386 0.07061531221414059
6735000000 -0.103935298506938 0.06327164797541529 -0.6687035056339792 -0.632840052620856 0.1663216530895415 -0.1858013796995436 -0.09981475499836738 0.08479570481282021
  -0.6687033071703106 -0.632839878696553 -0.1004001458955465 0.06715822932233724 -0.1001517370850745 0.08559450425904958 0.1646455149054817 -0.1874114718633398
  0.1663045364604507 -0.1857831291374729 -0.1001417512266954 0.08558640891044676 -0.07508709678977753 0.07112444555399706 -0.7900788630920738 -0.4720895446737006
  -0.09982225384153379 0.08480192138902587 0.1646575964125647 -0.1874248274564691 -0.7902132911140791 -0.4721735513010491 -0.07649465431309409 0.07069131359329384
6740000000 -0.1038247127690012 0.06342998577101368 -0.6697939998540039 -0.6316820701110306 0.1659283197634173 -0.1860010866866854 -0.09971468018550544 0.08509726437225817
  -0.6697938009481901 -0.6316818964137279 -0.1002798049244704 0.06731440377155148 -0.1000492024440495 0.08589724951597377 0.1642475508342624 -0.1876104927582298
  0.1659112416676241 -0.1859828157404585 -0.100039226072603 0.08588912444497501 -0.07492359937612879 0.0711959983154217 -0.7909743492428251 -0.4705904872230328
  -0.09972217208948662 0.08510350350954859 0.1642596033910825 -0.1876238637542782 -0.7911089365832962 -0.470674238851315 -0.0763297794147781 0.0707668393083416
6745000000 -0.1037137282734787 0.0635880802008234 -0.6708826205165529 -0.6305222374247496 0.1655344841597675 -0.1861996713861183 -0.09961372573835371 0.08539876955601634
  -0.6708824211687364 -0.630522063955457 -0.1001590666802038 0.0674703081006845 -0.09994578303798425 0.08619993082975698 0.1638490815089956 -0.1878083815878238
  0.1655174446484591 -0.1861813801667097 -0.09993581624013595 0.08619177604161166 -0.07475992060193085 0.07126707482408677 -0.7918671308619059 -0.4690897080299212
  -0.09962121063795974 0.08540503125226154 0.1638611050759206 -0.1878217679052389 -0.7920018770613521 -0.4691732043532532 -0.07616470281302767 0.07084188865724798
6750000000 -0.1036023455092694 0.06374592998405557 -0.6719693645867711 -0.6293605569934781 0.165140149625655 -0.1863971323609681 -0.09951189138494589 0.08570021770283061
  -0.6719691647970965 -0.6293603837532066 -0.1000379317453911 0.06762594102963526 -0.09984147864490887 0.08650254551487843 0.1634501102943001 -0.1880051368991513
  0.1651231487496876 -0.1863788209794995 -0.09983152150734945 0.08649436101509983 -0.07459606181834129 0.07133767445304695 -0.792757204502197 -0.467587211311543
  -0.09951936921496016 0.0857065019557056 0.1634621048319414 -0.1880185384562674 -0.7928921091005259 -0.4676704520247358 -0.07599942584318556 0.0709164609410254
6755000000 -0.1034905649706339 0.0639035338392477 -0.6730542290294824 -0.6281970312528501 0.164745319512784 -0.1865934681849342 -0.09940917686173865 0.08600160614938197
  -0.6730540287980952 -0.6281968582426101 -0.0999164007080338 0.06778130127805697 -0.09973628905151428 0.08680509088405862 0.163050640559507 -0.1882007572498205
  0.1647283573226818 -0.186575136752674 -0.09972634166095617 0.08679687667842413 -0.07443202437960814 0.07140779657846719 -0.7936445667191481 -0.4660830012923841
  -0.0994166475569193 0.08600791295636692 0.1630626060287196 -0.188214173964859 -0.7937796292556593 -0.4661659860909459 -0.07583394984400647 0.07099055546375566
6760000000 -0.1033783871572139 0.06406089048429051 -0.6741372108091834 -0.6270316626426918 0.1643499971774643 -0.1867886774423101 -0.09930558191362555 0.08630293223032369
  -0.6741370101362313 -0.6270314898634943 -0.09979447416150844 0.06793638756538338 -0.09963021405315869 0.08710756424828772 0.1626506756786237 -0.1883952412080382
  0.1643330737234195 -0.1867703260706707 -0.0996202764963386 0.08709932034283943 -0.0742678096430721 0.07147744057964166 -0.7945292140707793 -0.4645770822042703
  -0.09931304540870466 0.08630926158870306 0.162662612040507 -0.1884086729991075 -0.7946644340841698 -0.4646598107844083 -0.07566827615765873 0.07106417153261073
6765000000 -0.1032658125740528 0.06421799863645425 -0.6752183068900397 -0.6258644536070429 0.1639541859805736 -0.1869827587280015 -0.09920110629394602 0.08660419327830594
  -0.6752181057756724 -0.6258642810598993 -0.09967215270458382 0.06809119861085533 -0.09952325345388202 0.08740996291685443 0.1622502190302975 -0.1885885873526291
  0.1639373013124451 -0.1869643875285399 -0.09951332581755587 0.08740168931789814 -0.07410341896916493 0.0715466058390123 -0.7954111431177 -0.4630694582863864
  -0.09920856252363153 0.08661054518516931 0.1622621262461956 -0.188602034137727 -0.7955465201460623 -0.4631519303450069 -0.07550240612972436 0.07113730845787425
6770000000 -0.1031528417316153 0.06437485701241585 -0.6762975142358849 -0.624695406594179 0.1635578892875219 -0.1871757106475461 -0.09909574976449807 0.08690538662400359
  -0.6762973126802549 -0.624695234280101 -0.09954943694143817 0.06824573313354756 -0.09941540706641221 0.08771228419737384 0.1618492739977798 -0.188780794273056
  0.1635410434548363 -0.1871573197319621 -0.09940548943735784 0.08770398091148038 -0.07393885372141294 0.07161529174218868 -0.796290350423121 -0.4615601337853029
  -0.09910319866347371 0.08691176107624468 0.1618611520292811 -0.1887942559700689 -0.7964258840039448 -0.4616423490200128 -0.07533634110919994 0.07120996555296252
6775000000 -0.1030394751458071 0.06453146432828595 -0.6773748298102151 -0.6235245240566363 0.1631611104682147 -0.1873675318171336 -0.09898951209554961 0.08720650959614143
  -0.677374627813476 -0.6235243519766348 -0.09942632748167729 0.06839998985239605 -0.09930667471217734 0.08801452539581653 0.1614478439688889 -0.1889718605694392
  0.163144303520164 -0.1873491212972687 -0.09929676717719221 0.08800619242982183 -0.07377411526643478 0.07168349767796636 -0.7971668325528654 -0.4600491129550012
  -0.09899695359847566 0.08721290659045845 0.1614596927778279 -0.188985337096144 -0.7973025222230349 -0.4601310710641093 -0.07517008244849684 0.07128214213444617
6780000000 -0.1029257133379946 0.06468781929963614 -0.6784502505761885 -0.6223518084512316 0.1627638528970156 -0.1875582208636235 -0.09888239306584953 0.08750755952152101
  -0.6784500481384962 -0.622351636606319 -0.09930282494035053 0.06855396748622476 -0.0991970562213149 0.08831668381653725 0.1610459323359743 -0.1891617848525763
  0.1627470848824584 -0.1875397908514606 -0.09918715886721506 0.08830832117754182 -0.07360920497394416 0.07175122303834745 -0.7980405860753821 -0.4585364000568956
  -0.09888982710736323 0.08751397905441591 0.1610577518844309 -0.1891752761266402 -0.7981764313711801 -0.4586181007394124 -0.07500363150344243 0.07135383752207143
6785000000 -0.1028115568350243 0.06484392064152668 -0.6795237734966195 -0.6211772622390875 0.1623661199527102 -0.1877477764245654 -0.09877439246263879 0.08780853372504659
  -0.6795235706181316 -0.6211770906302768 -0.09917892993796887 0.06870766475377338 -0.09908655143268147 0.08861875676230303 0.1606435424958797 -0.1893505657439605
  0.1623493909201701 -0.1877293270322264 -0.09907666434630144 0.08861036445767265 -0.07344412421674856 0.07181846721855906 -0.7989116075617588 -0.4570219993598598
  -0.0987818189773555 0.08781497579282585 0.1606553327461795 -0.189364071682943 -0.7990476080188657 -0.4571034423155012 -0.07483698963327985 0.0714250510387818
6790000000 -0.1026970061692417 0.06499976706853394 -0.6805953955339787 -0.6200008878856544 0.1619679150184684 -0.1879361971482167 -0.09866551008166238 0.08810942952975237
  -0.6805951922148551 -0.6200007165139577 -0.09905464310052076 0.06886108037372483 -0.0989751601938635 0.08892074153432267 0.1602406778499066 -0.1895382018758006
  0.1619512250161343 -0.1879177284879621 -0.09896528346205423 0.08891231957168821 -0.07327887437075033 0.07188522961707326 -0.7997798935857361 -0.4555059151402497
  -0.0986729290041755 0.08811589412852562 0.160252438764622 -0.189551722397153 -0.7999160487392285 -0.4555871000694363 -0.07467015820066747 0.07149578201073942
6795000000 -0.1025820618785111 0.06515535729477856 -0.6816651136503877 -0.618822687860734 0.1615692414818076 -0.1881234816935609 -0.09855574572717865 0.08841024425682821
  -0.6816649098907908 -0.6188225167271639 -0.09892996505948942 0.06901421306473277 -0.09886288236118448 0.08922263543227457 0.159837341803777 -0.1897246918910404
  0.1615525905575329 -0.1881049938777898 -0.09885301607081352 0.08921418381953268 -0.07311345681494626 0.07195150963562671 -0.80064544072372 -0.4539881516819287
  -0.09856315699206138 0.0884167313825092 0.1598490733457267 -0.1897382269121072 -0.8007817501080726 -0.4540690782857874 -0.07450313857168019 0.07156602976734738
6800000000 -0.102466724506234 0.06531069003395354 -0.6827329248076197 -0.6176426646385015 0.1611701027345556 -0.1883096287303278 -0.09844509921197284 0.08871097522564675
  -0.6827327206077137 -0.6176424937440702 -0.09880489645186923 0.06916706154545009 -0.09874971779971736 0.08952443575433644 0.1594335377675963 -0.1899100344433754
  0.1611534909358576 -0.1882911218715753 -0.09873986203766763 0.08951595449964947 -0.07294787293142785 0.07201730667924025 -0.8015082455547955 -0.4524687132762929
  -0.09845250275377734 0.0887174848739526 0.1594452398998468 -0.1899235838813959 -0.8016447087038827 -0.4525493812566567 -0.07433593211580819 0.07163579364127082
6805000000 -0.102350994601368 0.06546576399935254 -0.6837988259670954 -0.6164608206975297 0.160770502172813 -0.1884946369390098 -0.09833357035736628 0.08901161975378961
  -0.6837986213270451 -0.6164606500432518 -0.0986794379201819 0.06931962453455656 -0.09863566638329188 0.08982613979721396 0.1590292691558175 -0.1900942281972744
  0.1607539295468728 -0.1884761111499465 -0.09862582123646112 0.08981762890900936 -0.07278212410538079 0.07208262015623898 -0.8023683046607405 -0.4509476042222945
  -0.09834096611062461 0.0890181519202405 0.1590409418416823 -0.1901077919693814 -0.8025049211078333 -0.4510280132817061 -0.07416854020595733 0.07170507296845952
6810000000 -0.102234872718446 0.06562057790389847 -0.6848628140898793 -0.6152771585208135 0.1603704431969163 -0.1886785050108817 -0.09822115899322709 0.08931217515707472
  -0.6848626090098533 -0.6152769881077013 -0.098553590112493 0.06947190075078748 -0.09852072799450577 0.09012774485616949 0.1586245393872031 -0.1902772718279954
  0.1603539097905783 -0.1886599604043125 -0.09851089354980486 0.09011920434314141 -0.07261621172508488 0.07214744947827204 -0.8032256146260428 -0.4494248288264656
  -0.09822854689245325 0.0893187298369945 0.1586361825902432 -0.1902908498512183 -0.8033623839038122 -0.4495049786681766 -0.07400096421844785 0.07177386708816975
6815000000 -0.1021183594175939 0.06577513046017205 -0.6859248861366798 -0.61409168059579 0.1599699292113995 -0.1888612316480169 -0.09810786495798275 0.08961263874958221
  -0.6859246806168473 -0.6140915104248575 -0.0984273536824279 0.06962388891296198 -0.09840490252473168 0.09042924822505111 0.1582193518847878 -0.1904591640216056
  0.1599534350711708 -0.1888426683368807 -0.09839507886908479 0.09042067809615936 -0.07245013718191369 0.07221179406033262 -0.8040801720379073 -0.4479003914029459
  -0.09811524493767163 0.08961921593809757 0.1582309655688127 -0.1904727562128699 -0.8042170936784224 -0.4479802817309194 -0.07383320553301487 0.07184217534298619
6820000000 -0.1020014552645497 0.06592942038044119 -0.6869850390678472 -0.6129043894143661 0.1595689636249577 -0.189042815563307 -0.09799368809862904 0.08991300784368196
  -0.6869848331083809 -0.612904219486628 -0.09830072928918747 0.0697755877400119 -0.09828818987412852 0.09073064719632207 0.1578137100758413 -0.1906399034749992
  0.1595525087970077 -0.1890242336606744 -0.09827837709447181 0.09072204746079279 -0.07228390187033344 0.07227565332077791 -0.8049319734862789 -0.4463742962735031
  -0.09800106009325744 0.08991960753572226 0.157825294204909 -0.1906535097511269 -0.8050690470210095 -0.4464539267924132 -0.07366526553280674 0.07190999707884431
6825000000 -0.1018841608306809 0.06608344637668974 -0.6880432698433716 -0.6117152874729397 0.1591675498504078 -0.1892232554804778 -0.09787862827074176 0.09021327975006037
  -0.6880430634444448 -0.6117151177894098 -0.09817371759756427 0.06992699595101069 -0.09817058995165009 0.09103193906108942 0.1574076173918318 -0.1908194888959146
  0.1591511343805683 -0.1892046550995513 -0.09816078813493033 0.0910233097284153 -0.07211750718790294 0.07233902668134957 -0.8057810155638501 -0.4448465477675617
  -0.0978859922147695 0.09021990194035792 0.1574191719302487 -0.1908331091736267 -0.8059182405236658 -0.4449259181827943 -0.07349714560438435 0.07197733164505246
6830000000 -0.1017664766930035 0.06623720716064695 -0.6890995754228798 -0.6105243772724251 0.1587656913046526 -0.1894025501341088 -0.09776268533848667 0.09051345177774638
  -0.6890993685846687 -0.6105242078341168 -0.09804631927795776 0.07007811226520236 -0.09805210267505336 0.09133312110913365 0.1570010772683865 -0.1909979190029535
  0.1587493152384164 -0.18938393138822 -0.09804231190822807 0.09132446218907357 -0.07195095453527235 0.07240191356719387 -0.8066272948660795 -0.4433171502222233
  -0.09777004116635711 0.09052009646083642 0.1570126021807088 -0.191011553198869 -0.8067646707812475 -0.4433962602398819 -0.0733288471377206 0.0720441783943144
6835000000 -0.101648403434199 0.06639070144381708 -0.6901539527656362 -0.609331661318274 0.1583633914086414 -0.1895806982696484 -0.09764585917463117 0.09081352123414038
  -0.6901537454883175 -0.6093314921262021 -0.09791853500638979 0.07022893540203073 -0.09793272797090749 0.0916341906289371 0.156594093145256 -0.1911751925255981
  0.1583470547911627 -0.1895620612722591 -0.09792294834094356 0.0916255021315168 -0.0717842453161823 0.07246431340688196 -0.8074708079912065 -0.4417861079822966
  -0.09765320682077136 0.09082018840436004 0.156605588396289 -0.1911888405562356 -0.8076083343913965 -0.4418649573091963 -0.07316037152619886 0.072110536682752
6840000000 -0.1015299416426327 0.06654392793750921 -0.6912063988305379 -0.6081371421205024 0.1579606535873327 -0.1897576986434323 -0.09752814966055344 0.09111348542503894
  -0.6912061911142928 -0.6081369731756827 -0.09779036546452007 0.07037946408116902 -0.09781246577460356 0.09193514490771437 0.1561866684662758 -0.1913513082042283
  0.1579443564634264 -0.1897390435081319 -0.0978026973684757 0.09192642684322629 -0.07161738093746303 0.07252622563243066 -0.8083115515402645 -0.4402534254003163
  -0.09753548905937502 0.09112017507652802 0.1561981340210744 -0.1913649699860075 -0.8084492279545478 -0.4403320137439913 -0.07299172016661092 0.07217640586992725
6845000000 -0.1014110919123707 0.066696885352867 -0.6922569105761189 -0.6069408221937149 0.1575574812696559 -0.1899335500227001 -0.09740955668625344 0.09141334165466347
  -0.6922567024211288 -0.6069406534971613 -0.09766181133966122 0.07052969702254935 -0.09769131603036227 0.09223598123144089 0.1557788066793277 -0.19152626479014
  0.1575412236837973 -0.1899148768632049 -0.09768155893505402 0.09222723361044453 -0.0714503628090329 0.07258764967932235 -0.8091495221170989 -0.4387191068365719
  -0.09741688777215374 0.09142005378136402 0.1557902425031975 -0.1915399402393805 -0.8092873480739456 -0.438797433905273 -0.07282289445915704 0.07224178531886558
6850000000 -0.1012918548431978 0.06684957240089895 -0.6933054849605419 -0.6057427040571258 0.1571538778884734 -0.1901082511856128 -0.09729008015036397 0.091713087225687
  -0.6933052763669901 -0.6057425356098538 -0.09753287332479343 0.07067963294639262 -0.09756927869124435 0.09253669688488243 0.1553705112363037 -0.191700061045561
  0.1571376598847976 -0.1900895601157648 -0.09755953299374424 0.09252791971820407 -0.07128319234389671 0.07264858498652621 -0.8099847163283801 -0.4371831566591324
  -0.0972974028577256 0.09171982182134317 0.1553819172948 -0.1917137500784855 -0.8101226913556634 -0.4372612221618285 -0.07265389580744289 0.07230667439607763
6855000000 -0.1011722310406345 0.06700198779250878 -0.6943521189416045 -0.6045427902345862 0.156749846880542 -0.1902818009212685 -0.09716971996015987 0.09201271943926161
  -0.6943519099096777 -0.6045426220376113 -0.09740355211857962 0.07082927057323837 -0.09744635371915579 0.09283728915162445 0.1549617855930658 -0.1918726957436703
  0.1567336685028435 -0.1902630920550348 -0.09743661950645963 0.09282848245035755 -0.07111587095814495 0.07270903099651892 -0.8108171307836226 -0.4356455792438672
  -0.09717703422335211 0.09201947649741912 0.1549731618519954 -0.1918863982764036 -0.8109552544086174 -0.4357233828902484 -0.07248472561847834 0.07237107247158307
6860000000 -0.1010522211159535 0.06715413023852596 -0.6953968094767329 -0.6033410832546071 0.1563453916864744 -0.1904541980297192 -0.09704847603156809 0.09231223559504483
  -0.695396600006619 -0.6033409153089453 -0.09727384842537971 0.07097860862397505 -0.09732254108486038 0.09313775531410186 0.15455263320941 -0.1920441676686121
  0.1563292529782069 -0.1904354714811906 -0.09731281844396843 0.09312891908960749 -0.07094840007095167 0.07276898715530489 -0.8116467620951974 -0.4341063789744745
  -0.09705578178494768 0.0923190151090513 0.1545639796348301 -0.1920578836171826 -0.8117850338445781 -0.4341839204749521 -0.07231538530267605 0.07243497891893287
6865000000 -0.1009318256861976 0.06730599844973628 -0.6964395535229849 -0.6021375856503847 0.1559405157507016 -0.1906254413219882 -0.09692634828917927 0.09261163299122789
  -0.6964393436148731 -0.6021374179570509 -0.09714376295526531 0.0711276458198703 -0.09719784076798471 0.09343809265362846 0.1541430575490264 -0.1922144756155151
  0.1559244167549778 -0.1906066972053783 -0.09718812978590194 0.0934292269175349 -0.0707807811045731 0.0728284529124379 -0.8124736068783489 -0.4325655602425079
  -0.09693364546709046 0.09261843495423322 0.1541543741072463 -0.192228204895856 -0.8126120262781948 -0.4326428393082145 -0.07214587627384801 0.07249839311523242
6870000000 -0.1008110453741956 0.06745759113691305 -0.6974803480370456 -0.6009322999598243 0.1555352225214334 -0.1907955296200847 -0.09680333666625628 0.09291090892456277
  -0.697480137691128 -0.6009321325198349 -0.09701329642403374 0.07127638088260151 -0.09707225275702867 0.09373829845042606 0.1537330620794622 -0.192383618390508
  0.1555191632810242 -0.1907767680497278 -0.09706255352076254 0.09372940321462918 -0.07061301548434464 0.07288742772104104 -0.8132976617512145 -0.4310231274473935
  -0.09681062520303178 0.09291773332951796 0.1537443487370424 -0.1923973609184571 -0.8134362283270062 -0.4311001437901861 -0.07197619994920425 0.0725613144411647
6875000000 -0.1006898808085788 0.0676089070108479 -0.6985191899752309 -0.599725228725564 0.1551295154506204 -0.1909644617570205 -0.09667944110474533 0.09321006069038992
  -0.6985189791917017 -0.5997250615399351 -0.09688244955322223 0.07142481253428642 -0.09694577704937296 0.09403836998365529 0.1533226502720825 -0.1925515948107356
  0.1551134960079541 -0.1909456828473725 -0.09693608964593368 0.09402944526031864 -0.0704451046386802 0.07294591103782878 -0.8141189233348358 -0.429479084996463
  -0.09668672093470689 0.09321690753004734 0.1533339069958358 -0.1925653505020366 -0.8142576366114584 -0.4295558383289233 -0.07180635774935082 0.07262374228101298
6880000000 -0.1005683326237976 0.0677599447823823 -0.6995560762934843 -0.5985163744950014 0.1547233979939149 -0.1911322365768266 -0.09655466155528521 0.09350908558266517
  -0.6995558650725386 -0.5985162075647497 -0.09675122307012195 0.07157293949751395 -0.09681841365128663 0.0943383045314438 0.1529118256020323 -0.1927184037043759
  0.154707418391078 -0.1911134404424619 -0.09680873816768552 0.09432935033299862 -0.07027704999906938 0.07300390232312783 -0.8149373882531804 -0.4279334373049749
  -0.09656193261274355 0.0935159548495786 0.1529230523590236 -0.1927321724746806 -0.8150762477549202 -0.4280099273404103 -0.07163635109828594 0.07268567602268464
6885000000 -0.1004464014601378 0.06791070316243916 -0.7005910039473788 -0.5973057398203183 0.1543168736106323 -0.1912988529345677 -0.0964289979772171 0.09380798089398794
  -0.7005907922892161 -0.5973055731464598 -0.09661961770779137 0.07172076049537553 -0.09669016257793565 0.0946380993709174 0.1525005915481977 -0.1928840439106561
  0.1543009338893684 -0.1912800396901797 -0.09668049910118584 0.09462911571006291 -0.07010885300007476 0.07306140104089739 -0.8157530531331544 -0.4263861887961388
  -0.09643626019647414 0.09381487258051223 0.152511788305745 -0.1928978256755226 -0.8158920583837035 -0.4264624152485837 -0.07146618142339813 0.07274711505773397
6890000000 -0.1003240879637358 0.0680611808620542 -0.7016239698921165 -0.5960933272585037 0.1539099457637128 -0.1914643096963585 -0.09630245033859473 0.09410674391562823
  -0.7016237577969354 -0.596093160842055 -0.09648763420507012 0.07186827425149589 -0.09656102385339184 0.094937751778229 0.1520889515931678 -0.1930485142798682
  0.1538940459654221 -0.1914454794567568 -0.09655137247050413 0.09492873866793188 -0.06994051507932994 0.07311840665875213 -0.816565914604625 -0.4248373439011413
  -0.09630970365394299 0.09411365801391976 0.1521001183188414 -0.1930623089547631 -0.8167050651270785 -0.4249133064853585 -0.07129585015546321 0.07280805878138548
6895000000 -0.100201392786595 0.06821137659240796 -0.7026549710825264 -0.5948791393713795 0.1535026179196807 -0.1916286057393785 -0.09617501861619421 0.09440537193755506
  -0.7026547585505291 -0.5948789732133579 -0.09635527330659228 0.07201547949006464 -0.09643099751063797 0.09523725902858822 0.151676909223195 -0.1932118136733843
  0.15348675808542 -0.1916097586194899 -0.09642135830862388 0.09522821648208393 -0.06977203767753688 0.07317491864798198 -0.8173759693004324 -0.4232869070591709
  -0.09618226296191723 0.09441230843957056 0.1516880458848188 -0.1932256211736844 -0.8175152646172889 -0.4233626054906541 -0.07112535872864124 0.07286850659255809
6900000000 -0.1000783165866015 0.06836128906485806 -0.703684004473068 -0.5936631787256286 0.1530948935486077 -0.1917917399518881 -0.0960467027955229 0.0947038622484636
  -0.7036837915044583 -0.5936630128270501 -0.0962225357627995 0.07216237493586784 -0.0963000835915786 0.09553661839629246 0.1512644679281569 -0.1933739409636742
  0.1530790737190899 -0.191772876066754 -0.09629045665744697 0.09552754642708429 -0.06960342223846301 0.07323093648357436 -0.8181832138564099 -0.4217348827174437
  -0.0960539381058973 0.09471082114596115 0.1512755744938083 -0.1933877612046652 -0.8183226534895737 -0.4218103167124141 -0.07095470858047272 0.07292845789388751
6905000000 -0.09995486002753878 0.06851091699097113 -0.7047110670178307 -0.5924454478928142 0.1526867761240718 -0.1919537112332427 -0.09591750287083002 0.09500221213580319
  -0.7047108536128146 -0.5924452822546972 -0.09608942232995397 0.0723089593143197 -0.09616828214704563 0.09583582715475553 0.1508516312015177 -0.1935348950343183
  0.1526709963396654 -0.1919348306980174 -0.09615866756780247 0.09582672577661541 -0.06943467020893788 0.0732864596442354 -0.8189876449114023 -0.4201812753312246
  -0.09592472908012474 0.09500919342034138 0.1508627076395277 -0.1935487279311974 -0.8191272283821817 -0.4202564446066395 -0.07078390115187626 0.07298791209175069
6910000000 -0.09983102377910347 0.06866025908255546 -0.7057361556705334 -0.591225949449411 0.1522782691231195 -0.1921145184939075 -0.09578741884511552 0.09530041888580539
  -0.7057359418293202 -0.5912257840727722 -0.0959559337701512 0.07245523135149433 -0.09603559323680722 0.0961348825765389 0.1504384025402878 -0.1936946747800245
  0.1522625294238483 -0.1920956214238596 -0.09602599109945413 0.09612575180350649 -0.06926578303885091 0.07334148761241192 -0.8197892591072812 -0.4186260893638571
  -0.09579463588759282 0.09530742254874337 0.150449448819242 -0.1937085202479009 -0.8199289859363903 -0.4187009936374046 -0.07061293788714415 0.0730468685962888
6915000000 -0.09970680851692021 0.06880931405169348 -0.706759267384527 -0.5900046859768272 0.1518693760262252 -0.192274160655473 -0.09565645073013923 0.09559847978351101
  -0.7067590531073255 -0.5900045208626837 -0.09582207085133294 0.07260118977415803 -0.09590201692957394 0.09643378193338061 0.1500247854449872 -0.1938532791066434
  0.1518536764517684 -0.1922552471659825 -0.09589242732110861 0.0964246217797646 -0.06909676218114751 0.0733960198743125 -0.8205880530889652 -0.4170693292867859
  -0.0956636585400554 0.09560550581600853 0.1500358015337252 -0.1938671370605383 -0.820727922796525 -0.4171439682768893 -0.07044182023393883 0.07310532682143185
6920000000 -0.09958221492255633 0.06895808061077478 -0.7077803991127937 -0.5887816600614303 0.1514601003172532 -0.1924326366506698 -0.09552459854643058 0.09589639211279971
  -0.7077801843998165 -0.5887814952108011 -0.09568783434729905 0.07274683330980125 -0.0957675533030074 0.09673252249622598 0.149610783419604 -0.1940107069311822
  0.1514444409069445 -0.1924137068572264 -0.09575797631042232 0.09672333297660338 -0.06892760909182591 0.07345005591992962 -0.8213840235044407 -0.4155109995795814
  -0.09553179705803717 0.09590344050581712 0.1496217692872199 -0.1940245772860305 -0.8215240356099768 -0.4155853730053985 -0.07027054964328951 0.07316328618492145
6925000000 -0.09945724368353649 0.06910655747252864 -0.7087995478079484 -0.587556874294574 0.1510504454834174 -0.1925899454233813 -0.09539186232329831 0.09619415315641633
  -0.7087993326594101 -0.5875567097084755 -0.09555322503772028 0.07289216068667109 -0.09563220244372615 0.09703110153525807 0.149196399971556 -0.1941669571818208
  0.1510348262762445 -0.1925709994415847 -0.0956226381540064 0.09702188266447444 -0.06875832522993404 0.0735035952430613 -0.8221771670047748 -0.4139511047299647
  -0.09539905147084175 0.09620122390071406 0.1492073555873993 -0.1941808398524712 -0.8223173210272186 -0.4140252123113919 -0.07009912756958732 0.07322074610833519
6930000000 -0.09933189549335732 0.06925474335005778 -0.7098167104222426 -0.5863303312726224 0.1506404150152419 -0.1927460859286584 -0.09525824209883901 0.09649176019600006
  -0.7098164948383581 -0.5863301669520734 -0.09541824370814989 0.07303717063380391 -0.09549596444731509 0.09732951631992687 0.1487816386116519 -0.1943220287979253
  0.1506248360498468 -0.1927271238742175 -0.0954864129474389 0.09732026811309696 -0.068588912057565 0.07355663734133301 -0.822967480244137 -0.4123896492338343
  -0.09526542181656177 0.09649885328213879 0.1487925639453271 -0.1943359236991413 -0.823107775701828 -0.4124634906915056 -0.06992755547058135 0.07327770601711085
6935000000 -0.09920617105150144 0.06940263695687125 -0.7108318839075602 -0.5851020335969769 0.1502300124065218 -0.1929010571327353 -0.0951237379199462 0.09678921051211208
  -0.7108316678885483 -0.5851018695429947 -0.09528289115003583 0.07318186188105784 -0.09535883941833026 0.09762776411898111 0.1483665028540516 -0.1944759207300632
  0.1502144737211998 -0.1928820791214657 -0.09534930079526752 0.09761848659148749 -0.06841937103985413 0.07360918171621968 -0.8237549598798219 -0.4108266375952867
  -0.09513090814208731 0.09679632593045254 0.1483773978754186 -0.1944898277765247 -0.8238953962905045 -0.4109002126505766 -0.06975583480737514 0.07333416534056957
6940000000 -0.09908007106345125 0.06955023700691809 -0.7118450652154258 -0.5838719838741003 0.1498192411542825 -0.1930548580130418 -0.09498834984231991 0.09708650138426415
  -0.7118448487615072 -0.583871820087704 -0.09514716816073195 0.07332623315914587 -0.09522082747030627 0.09792584220049626 0.1479509962162263 -0.194628631940017
  0.1498037427869828 -0.1930358641608644 -0.09521130181101814 0.0979165353679914 -0.0682497036449741 0.07366122787306752 -0.8245396025722593 -0.4092620743266496
  -0.09499551050311601 0.09709363912496732 0.147961860895401 -0.1946425510463206 -0.8246801794530869 -0.4093353827016707 -0.06958396704442028 0.07339012351194064
6945000000 -0.09895359624070328 0.06969754221462109 -0.7128562512970015 -0.5826401847155446 0.1494081047587421 -0.1932074875582162 -0.0948520779304753 0.09738363009094629
  -0.7128560344083972 -0.582640021197753 -0.09501107554351013 0.07347028319966872 -0.09508192872576532 0.0982237478319076 0.1475351222189197 -0.1947801614007992
  0.1493926467470661 -0.1931884779811579 -0.09507241611720246 0.09821441171031275 -0.06807991134413183 0.07371277532111628 -0.8253214049850434 -0.4076959639484961
  -0.09485922896416066 0.09739079014397298 0.1475459565262738 -0.1947940924814584 -0.8254621218525772 -0.4077690053661059 -0.06941195364951391 0.07344557996838548
6950000000 -0.09882674730078117 0.06984455129491042 -0.7138654391030886 -0.5814066387379766 0.1489966067232684 -0.1933589447681201 -0.09471492225775122 0.09768059390965589
  -0.7138652217800245 -0.5814064754898071 -0.09487461410757088 0.07361401073514794 -0.09494214331622051 0.09852147828003881 0.147118884386108 -0.1949305080966661
  0.148981189104471 -0.193339919582312 -0.09493264384532334 0.09851211288554361 -0.06790999561156347 0.07376382357352143 -0.8261003637849444 -0.4061283109896777
  -0.09472206359855904 0.0976877762647666 0.1471296882922697 -0.1949444510661131 -0.8262412201551539 -0.4062010851734758 -0.06923979609379154 0.07350053415102123
6955000000 -0.09869952496724958 0.06999126296325801 -0.7148726255841363 -0.5801713485632024 0.1485847505543424 -0.1935092286538524 -0.09457688290632039 0.09797739011692527
  -0.7148724078268363 -0.5801711855856739 -0.09473778466805458 0.07375741449905959 -0.09480147138218609 0.09881903081113246 0.1467022862449601 -0.1950796710231302
  0.1485693733653301 -0.1934901879755276 -0.09479198513588258 0.09880963616019633 -0.06773995792453021 0.07381437214737609 -0.8268764756419361 -0.4045591199873474
  -0.0945840144884824 0.09798459476368038 0.146713059720814 -0.1950936257957167 -0.8270174710301968 -0.4046316266616776 -0.06906749585172391 0.07355498550494599
6960000000 -0.09857192996972704 0.07013767593571159 -0.7158778076902337 -0.578934316818196 0.148172539761516 -0.1936583382377597 -0.09443795996719645 0.09827401598835102
  -0.715877589498928 -0.5789341541123265 -0.09460058804605241 0.07390049322586736 -0.09465991307318124 0.09911640269088168 0.1462853313257985 -0.1952276491869765
  0.1481572030388476 -0.1936392821832542 -0.09465044013838758 0.09910697880023317 -0.06756979976331326 0.07386442056373364 -0.8276497372292091 -0.4029883954869817
  -0.09444508172494462 0.09828124291611028 0.146296074342486 -0.1952416156769732 -0.8277908711503073 -0.403060634376934 -0.06889505440111049 0.07360893347926221
6965000000 -0.09844396304389907 0.07028378892892884 -0.7168809823711204 -0.5776955461351214 0.1477599778573728 -0.1938062725534525 -0.09429815354024369 0.09857046879862105
  -0.7168807637460387 -0.5776953837019315 -0.09446302506861708 0.07404324565105645 -0.09451746854773858 0.09941359118445955 0.1458680231620581 -0.1953744416062731
  0.1477446816372585 -0.1937872012392018 -0.0945080090113561 0.09940413807109592 -0.06739952261120995 0.07391396834762985 -0.8284201452231932 -0.4014161420424096
  -0.09430526540781024 0.09857771799654426 0.145878735690978 -0.1953884197278722 -0.8285614171913235 -0.4014881128738214 -0.06872247322307444 0.07366237752710166
6970000000 -0.09831562493153101 0.07042960066021256 -0.7178821465761858 -0.5764550391513666 0.147347068357488 -0.1939530306458158 -0.09415746373418504 0.09886674582154498
  -0.7178819275175606 -0.5764548769918737 -0.09432509656877294 0.07418567051116726 -0.09437413797340892 0.09971059355655057 0.1454503652902484 -0.1955200473103866
  0.1473318126757899 -0.1939339441883557 -0.09436469192232572 0.09970111123773849 -0.06722912795452811 0.07396301502810551 -0.8291876963035802 -0.3998423642158347
  -0.09416456564580375 0.09887401727859103 0.1454610473030565 -0.1955340369777017 -0.8293291058323475 -0.3999140667152912 -0.06854975380205723 0.07371531710564934
6975000000 -0.09818691638048013 0.0705751098475446 -0.7188812972544726 -0.5752127985095599 0.1469338147803882 -0.1940986115710227 -0.0940158906666111 0.09916284433008124
  -0.7188810777625386 -0.5752126366247835 -0.09418680338552647 0.0743277665438294 -0.09422992152676968 0.1000074070713804 0.1450323612499114 -0.1956644653399938
  0.1469185996726191 -0.1940795100869867 -0.09422048904785839 0.0999978955646563 -0.06705861728258081 0.07401156013822849 -0.8299523871533433 -0.3982670665778596
  -0.09402298255651718 0.09917013803500858 0.1450430127185212 -0.1956784664670616 -0.8300939337557609 -0.3983385004726954 -0.06837689762581255 0.07376775167616847
6980000000 -0.09805783814470875 0.07072031520962144 -0.7198784313546782 -0.5739688268576044 0.1465202206475112 -0.1942430143965462 -0.09387343446398851 0.09945876159636687
  -0.719878211429671 -0.5739686652485642 -0.09404814636387622 0.07446953248779579 -0.0940848193934294 0.1003040289927473 0.1446140145835831 -0.1958076947470956
  0.1465050461488349 -0.1942238980026659 -0.09407540057354552 0.1002944883159165 -0.06688799208768226 0.07405960321511686 -0.8307142144587542 -0.3966902537075153
  -0.0938805162664198 0.09946607753773308 0.1446246354801659 -0.1958217072478748 -0.8308558976472471 -0.3967614187258169 -0.06820390618540031 0.07381968070402485
6985000000 -0.09792839098429551 0.07086521546588881 -0.7208735458251588 -0.572723126848701 0.1461062894831656 -0.1943862382011725 -0.09373009526166816 0.09975449489174509
  -0.7208733254673182 -0.5727229655164157 -0.09390912635482263 0.07461096708297683 -0.09393883176803366 0.1006004565840527 0.1441953288367526 -0.1959497345950293
  0.146091155628396 -0.1943671070142751 -0.09392942669401669 0.1005908867551902 -0.06671725386514075 0.07410714379996074 -0.8314731749094112 -0.39511193019228
  -0.09373716691086513 0.09976183305790713 0.1442059191337376 -0.1959637583834037 -0.831614994195813 -0.3951828260628859 -0.06803078097518067 0.07387110365871098
6990000000 -0.09779857566544788 0.07100980933657716 -0.7218666376139335 -0.5714757011413764 0.145692024814491 -0.1945282820750119 -0.09358587320389351 0.100050041486795
  -0.7218664168234985 -0.5714755400868655 -0.09376974421537757 0.07475206907047505 -0.09379195885427262 0.1008966871083317 0.1437763075578219 -0.1960905839584814
  0.1456769316380923 -0.1945091362120198 -0.09378256761294365 0.1008870881457822 -0.06654640411325458 0.07415418143804563 -0.8322292651982534 -0.3935321006281087
  -0.09359293463410073 0.1000574018659089 0.1437868672278969 -0.1961046189482593 -0.8323712200938096 -0.3936027270806113 -0.06785752349280826 0.07392202001387164
6995000000 -0.09766839296051338 0.07115409554273688 -0.7228577036686865 -0.5702265523995076 0.145277430171416 -0.1946691451195116 -0.09344076844380829 0.10034539865136
  -0.7228574824459012 -0.5702263916237905 -0.09363000080857356 0.0748928371926194 -0.09364420086488644 0.1011927178282845 0.1433569542980664 -0.1962302419234992
  0.1452623777075027 -0.1946499846974412 -0.09363482354304785 0.1011830897506617 -0.06637544433330554 0.0742007156787748 -0.8329824820215886 -0.391950769619455
  -0.09344781958927459 0.1003527812313811 0.1433674833141775 -0.1962442880284156 -0.8331245720369553 -0.3920211263842016 -0.06768413523922348 0.07397242924732744
7000000000 -0.09753784364799165 0.07129807280627388 -0.7238467409367693 -0.5689756832923512 0.1448625090866201 -0.1948088264474677 -0.09329478114346623 0.1006405636545769
  -0.7238465192818785 -0.568975522796448 -0.09348989700347349 0.07503327019299989 -0.09349555802167039 0.1014885460063064 0.1429372726115935 -0.1963687075875051
  0.1448474973689557 -0.1947896515834277 -0.09348619470610414 0.101478888832494 -0.06620437602955309 0.0742467460756924 -0.8337328220791096 -0.3903679417792992
  -0.09330182193844522 0.1006479684232594 0.1429477709469455 -0.1963827647212206 -0.8338750467243555 -0.390438028587392 -0.06751061771864918 0.07402233084110055
7005000000 -0.09740692851254464 0.07144173984998541 -0.7248337463652106 -0.5677230964945691 0.1444472650954909 -0.1949473251830346 -0.09314791147383669 0.1009355337649047
  -0.724833524278459 -0.5677229362794997 -0.09334943367517901 0.07517336681650294 -0.09334603055548137 0.1017841689045198 0.1425172660553033 -0.1965059800593061
  0.1444322941574886 -0.1949281359942269 -0.09333668133294941 0.1017744826536711 -0.06603320070922841 0.07429227218650536 -0.8344802820739198 -0.3887836217291695
  -0.09315494185258841 0.1009429607098017 0.1425277336833605 -0.1965200481354094 -0.8346226408585253 -0.3888534383124695 -0.06733697243858106 0.07407172428143914
7010000000 -0.09727564834500879 0.07158509539759564 -0.7258187169007089 -0.5664687946862553 0.1440317017360851 -0.1950846404617402 -0.09300015961481561 0.1012303062501537
  -0.7258184943823465 -0.566468634753039 -0.09320861170483917 0.07531312580934561 -0.093195618706243 0.1020795837848047 0.1420969381888475 -0.1966420584591075
  0.1440167716108069 -0.1950654370654553 -0.09318628366348558 0.1020698684763424 -0.06586191988252815 0.07433729357310734 -0.8352248587125535 -0.3871978140991688
  -0.09300717951160506 0.101237755358617 0.1421073750833331 -0.1966561373911159 -0.8353673511454117 -0.3872673601902958 -0.06716320090978169 0.07412060905884191
7015000000 -0.09714400394240501 0.07172813817379213 -0.7268016494896485 -0.5652127805529639 0.1436158225490868 -0.1952207714304936 -0.0928515257552303 0.1015248783775144
  -0.7268014265399266 -0.5652126209026201 -0.09306743197965955 0.07545254591911139 -0.09304432272295166 0.102374787908829 0.1416762925745892 -0.1967769419185242
  0.1436009332692438 -0.1952015539441123 -0.09303500194668617 0.1023650435624455 -0.06569053506260811 0.07438180980160114 -0.8359665487050003 -0.3856105235279999
  -0.09285853510433033 0.1015323496366948 0.1416866987094856 -0.1967910316198829 -0.8361091742944158 -0.3856797988603338 -0.06698930464627303 0.07416898466808337
7020000000 -0.0970119961079496 0.07187086690426155 -0.7277825410780978 -0.5639550567857339 0.1431996310777678 -0.1953557172475973 -0.09270201009284924 0.1018192474135868
  -0.7277823176972683 -0.5639548974192831 -0.09292589539290998 0.07559162589478512 -0.0928921428636818 0.1026697785380811 0.1412553327775623 -0.1969106295805914
  0.1431847826757188 -0.1953364857885895 -0.09288283644060276 0.1026600051737386 -0.06551904776557624 0.07442582044232179 -0.8367053487647256 -0.3840217546629884
  -0.0927090088285405 0.101826740810434 0.1412657081271118 -0.1969247299646772 -0.8368481070184158 -0.3840907589706709 -0.0668152851653296 0.07421685060823867
7025000000 -0.09687962565106423 0.07201328031572622 -0.7287613886118112 -0.5626956260811189 0.1427831308679454 -0.1954894770827597 -0.09255161283438963 0.1021134106244095
  -0.7287611648001298 -0.5626954669995812 -0.09278400284393283 0.07573036448678837 -0.09273907939559142 0.1029645529338994 0.1408340623654303 -0.1970431205997776
  0.1427683233756982 -0.1954702317686814 -0.09272978741236855 0.10295475057183 -0.06534745951048679 0.07446932506985937 -0.8374412556086932 -0.3824315121601102
  -0.09255860089096055 0.1021209261456716 0.1408444069041351 -0.1970572315798974 -0.8375841460337893 -0.3825002451780456 -0.06664114398746993 0.07426420638270853
7030000000 -0.09674689338738654 0.07215537713598072 -0.7297381890362413 -0.5614344911412144 0.142366325467943 -0.1956220501171033 -0.09240033419552458 0.1024073652754893
  -0.7297379647939644 -0.5614343323456095 -0.09264175523815089 0.07586876044701533 -0.09258513259492693 0.1032591083575051 0.1404124849084467 -0.1971744141419944
  0.1423515589171533 -0.1956027910655968 -0.09257585513820492 0.1032492770182104 -0.06517577181933241 0.07451232326308255 -0.8381742659573885 -0.3808398006840144
  -0.09240731150727247 0.102414902907713 0.1404227986110693 -0.1971885356313865 -0.8383172880604369 -0.3809082621478716 -0.06646688263644945 0.07431105149924432
7035000000 -0.09661380013877932 0.07229715609392816 -0.7307129392965368 -0.560171654673681 0.1419492184285484 -0.1957534355431768 -0.09224817440089095 0.1027011086318299
  -0.7307127146239225 -0.5601714961650291 -0.09249915348707471 0.07600681252886786 -0.09243030274702753 0.1035534420700321 0.1399906039794133 -0.1973045093846077
  0.1419344928505192 -0.1957341628719691 -0.09242103990342584 0.1035435817742834 -0.0650039862170376 0.07455481460516133 -0.838904376534847 -0.3792466249080468
  -0.09225514090212279 0.1027086683613606 0.1400008868209762 -0.1973186412964437 -0.8390475298218059 -0.3793148145542605 -0.06629250263925177 0.07435738546997289
7040000000 -0.09648034673334072 0.07243861591961734 -0.7316856363375489 -0.5589071193917773 0.1415318133029732 -0.1958836325649644 -0.0920951336840965 0.1029946379579611
  -0.7316854112348603 -0.5589069611710991 -0.09235619850831041 0.07614451948729202 -0.09227459014633342 0.1038475513325587 0.1395684231536401 -0.1974334055164499
  0.141517128728655 -0.1958643463918668 -0.09226534200244341 0.1038376621013975 -0.06483210423145133 0.07459679868359015 -0.8396315840686688 -0.3776519895142788
  -0.09210208930912943 0.1030022197709429 0.1395786751094267 -0.1974475477638341 -0.8397748680449117 -0.3777199070800498 -0.06611800552608166 0.07440320781142229
7045000000 -0.09634653400541315 0.07257975534427946 -0.7326562771038411 -0.5576408880143836 0.1411141136468112 -0.1960126403978972 -0.09194121228772779 0.1032879505179697
  -0.7326560515713396 -0.557640730082699 -0.09221289122556628 0.07628188007881347 -0.09211799509638625 0.1041414334061393 0.1391459460089042 -0.1975611017378282
  0.1410994701068019 -0.1959933408408034 -0.0921087617387718 0.1041315152608765 -0.06466012739333996 0.07463827509021173 -0.8403558852900486 -0.3760558991935275
  -0.09194815697088977 0.1032955544003445 0.1391561670544582 -0.1975752542338001 -0.8404992994603651 -0.3761235444168244 -0.06594339283035593 0.07444851804454601
7050000000 -0.09621236279559295 0.07272057310036524 -0.7336248585396864 -0.5563729632660314 0.1406961230179984 -0.1961404582688622 -0.09178641046335688 0.1035810435755267
  -0.7336246325776385 -0.5563728056243601 -0.09206923256866037 0.07641889306157383 -0.09196051790983828 0.1044350855518352 0.1387231761254083 -0.1976875972605377
  0.140681520542543 -0.1961211454457474 -0.09195129942503449 0.1044251385140516 -0.06448805723637904 0.07467924342123956 -0.8410772769337969 -0.3744583586453825
  -0.09179334413898793 0.1035886695130357 0.1387333662365346 -0.1977017599180712 -0.8412208208023918 -0.3745257312649458 -0.06576866608869412 0.07449331569474885
7055000000 -0.09607783395073881 0.07286106792158228 -0.7345913775890822 -0.5551033478769284 0.1402778449767713 -0.1962670854162122 -0.09163072847155029 0.1038739143939195
  -0.7345911511977541 -0.5551031905262916 -0.09192522347352643 0.07655555719536677 -0.09180215890845364 0.1047285050307463 0.1383001170857409 -0.1978128913078699
  0.1402632835957608 -0.1962477594451326 -0.09179295538296606 0.1047185291222924 -0.06431589529714576 0.0747197032772819 -0.8417957557383672 -0.3728593725782312
  -0.09163765107400142 0.1038815623721013 0.1383102762385055 -0.1978270640398747 -0.8419394288088593 -0.3729264723335707 -0.06559382684091196 0.07453760029191205
7060000000 -0.09594294832398051 0.07300123854293207 -0.7355558311957462 -0.5538320445829898 0.1398592830856251 -0.1963925210897758 -0.09147416658187274 0.1041665602360783
  -0.735555604375407 -0.5538318875244078 -0.09178086488222102 0.07669187124167436 -0.09164291842311485 0.1050216891040423 0.1378767724748343 -0.1979369831146234
  0.1398447628285976 -0.196373182088866 -0.09163372994341859 0.105011684347039 -0.0641436431151112 0.07475965426336453 -0.8425113184458752 -0.3712589457092823
  -0.09148107804550931 0.1041742302402707 0.1378869006455645 -0.1979511658339467 -0.8426551202213008 -0.3713257723406812 -0.06541887663000985 0.07458137137041815
7065000000 -0.09580770677472758 0.07314108370074796 -0.7365182163031295 -0.5525590561258631 0.1394404409092737 -0.1965167645508671 -0.09131672507289883 0.104458978364609
  -0.7365179890540513 -0.5525588993603563 -0.09163615774292944 0.07682783396370346 -0.09148279679382776 0.1053146350329947 0.1374531458799241 -0.1980598719271138
  0.1394259618054135 -0.1964974126383401 -0.09147362344636581 0.105304601449832 -0.06397130223263227 0.07479909598895478 -0.8432239618021288 -0.3696570827645902
  -0.09132362533209798 0.1044666703799471 0.1374632430452084 -0.1980740645465398 -0.8433678917849402 -0.3697236360131052 -0.06524381700216536 0.07462462846917656
7070000000 -0.09567211016867716 0.07328060213273245 -0.737478529854421 -0.5512843852529564 0.1390213220146082 -0.1966398150722941 -0.09115840423221593 0.1047511660418203
  -0.7374783021768762 -0.5512842287815454 -0.09149110300997156 0.07696344412642252 -0.09132179436972407 0.1056073400790078 0.1370292408905074 -0.198181557003184
  0.1390068840927451 -0.19662045036644 -0.09131263624090802 0.105597277692346 -0.06379887419494265 0.07483802806798438 -0.8439336825566512 -0.3680537884790803
  -0.09116529322137015 0.1047588800532382 0.1370393070271966 -0.198195759435436 -0.8440777402487167 -0.3681200680865432 -0.06506864950672367 0.07466737113164916
7075000000 -0.09553615937782219 0.07341979257799509 -0.7384367687925502 -0.5500080347174675 0.1386019299706546 -0.1967616719383679 -0.09099920435643301 0.1050431205297551
  -0.7384365406868152 -0.5500078785411729 -0.09134570164380788 0.077098700496598 -0.09115991150906783 0.1058998015036505 0.1366050610983026 -0.1983020376122132
  0.1385875332592645 -0.1967422945575527 -0.09115076868527526 0.1058897103364197 -0.06362636055014563 0.07487645011887351 -0.844640477462701 -0.3664490675965726
  -0.09100608200994915 0.1050508565219848 0.1366150961835093 -0.1983162497699536 -0.8447846623653086 -0.3665150733055922 -0.06489337569618792 0.07470959890587499
7080000000 -0.09539985528045901 0.07355865377709055 -0.7393929300601985 -0.5487300072784101 0.1381822683485337 -0.196882334444913 -0.09083912575118776 0.1053348390902197
  -0.7393927015265511 -0.5487298513982523 -0.09119995461104491 0.07723360184283141 -0.09099714857925802 0.1061920165686882 0.1361806100972075 -0.1984213130351265
  0.1381679128757381 -0.1968629445075777 -0.09098802114683234 0.1061818966440876 -0.06345376284920376 0.07491436176455377 -0.845344343277307 -0.3648429248698079
  -0.09084599200348863 0.1053425970477914 0.1361906141083059 -0.1984355348309578 -0.8454886548911594 -0.3649086564237708 -0.06471799712620878 0.07475131134449604
7085000000 -0.09526319876119446 0.07369718447205634 -0.7403470105998025 -0.5474503057006438 0.137762340721419 -0.1970018018992746 -0.09067816873115332 0.1056263189848138
  -0.740346781638521 -0.5474501501176431 -0.09105386288444049 0.07736814693559627 -0.09083350595683322 0.1064839825361135 0.1357558914832581 -0.1985393825644043
  0.1377480265149845 -0.1969823995239324 -0.09082439400208282 0.1064738338776132 -0.06328108264593175 0.0749517626324923 -0.8460452767612853 -0.3632353650604701
  -0.09068502351667677 0.1056340988920553 0.1357658643978853 -0.19855361391087 -0.8461897145865054 -0.3633008222035428 -0.06454251535557587 0.07479250800478263
7090000000 -0.0951261907109536 0.07383538340645138 -0.7412990073535616 -0.5461689327548992 0.1373421506644956 -0.1971200736203264 -0.09051633362004308 0.1059175574749597
  -0.7412987779649286 -0.5461687774700767 -0.09090742744290856 0.07750233454727491 -0.09066898402747625 0.1067756966681792 0.1353309088545874 -0.1986562455040908
  0.137327877751834 -0.1971006589255645 -0.09065988763667376 0.1067655192995183 -0.06310832149698607 0.07498865235471469 -0.846743274679268 -0.3616263929392125
  -0.09052317687324452 0.1059253593159976 0.1353408506506423 -0.198670486313677 -0.8468878382153957 -0.3616915754163413 -0.06436693194620688 0.07483318844865904
7095000000 -0.0949888320269862 0.07397324932539408 -0.7422489172634469 -0.5448858912178082 0.1369217017549184 -0.1972371489384817 -0.09035362075061974 0.1062085518219336
  -0.742248687447746 -0.5448857362321852 -0.09076064927152414 0.07763616345219596 -0.09050358318601753 0.1070671562274295 0.1349056658113839 -0.1987719011698044
  0.1369074701630868 -0.1972177220429581 -0.09049450244539822 0.107056950172617 -0.06293548096185679 0.07502503056782954 -0.8474383337997302 -0.36001601328568
  -0.09036045240597211 0.1062163755806924 0.1349155764670286 -0.1987861513549393 -0.8475830225457249 -0.3600809208425942 -0.06419124846313663 0.0748733522427282
7100000000 -0.09485112361287361 0.07411078097560071 -0.7431967372712029 -0.5436011838719323 0.1365009975717713 -0.1973530271956988 -0.09019003046470057 0.1064992992868951
  -0.7431965070287202 -0.5436010291865283 -0.09061352936152814 0.07776963242667136 -0.0903373038364384 0.1073583584767313 0.1344801659558508 -0.1988863488887447
  0.1364868073274707 -0.1973335882181415 -0.09032823883220011 0.1073481237600463 -0.06276256260285709 0.07506089691305115 -0.8481304508950157 -0.3584042308885353
  -0.09019685045669462 0.1065071449470968 0.1344900454495097 -0.1989006083618002 -0.8482752643492559 -0.358468863271748 -0.06401546647450801 0.07491299895829817
7105000000 -0.09471306637853516 0.07424797710542434 -0.7441424643183633 -0.5423148135057894 0.1360800416960243 -0.1974677077454912 -0.09002556311316462 0.1067897971309168
  -0.7441422336493857 -0.5423146591216254 -0.09046606871033107 0.07790274024903418 -0.09017014639187611 0.1076493006793069 0.1340544128921633 -0.1989995879997017
  0.1360658928256008 -0.197448256804697 -0.09016109721017783 0.1076390373252978 -0.06258956798511477 0.07509625103622394 -0.848819622741361 -0.3567910505454834
  -0.09003237137630932 0.1067976646760815 0.134064261202524 -0.1990138566729946 -0.8489645604016455 -0.3568554075022924 -0.06383958755156068 0.07495212817140699
7110000000 -0.0945746612402342 0.07438483646489315 -0.7450860953462494 -0.5410267829138825 0.1356588377104937 -0.1975811899529334 -0.08986021905595701 0.1070800426150145
  -0.7450858642510666 -0.54102662883198 -0.09031826832151782 0.07803548569967574 -0.090002111274626 0.1079399800987653 0.1336284102264282 -0.1991116178530646
  0.1356447302399373 -0.1975617271677676 -0.08999307800158736 0.1079296881322504 -0.06241649867656202 0.07513109258784595 -0.8495058461189248 -0.3551764770632933
  -0.08986701552478142 0.1070879320284605 0.1336382273324415 -0.1991258956388572 -0.8496509074824719 -0.3552405583417844 -0.06366361326861951 0.0749907394628482
7115000000 -0.09443590912058417 0.07452135780574956 -0.7460276272959846 -0.5397370948967285 0.1352373891997989 -0.1976934731946707 -0.08969399866209793 0.1073700330001783
  -0.74602739577489 -0.5397369411181075 -0.09017012920485031 0.07816786756108329 -0.08983319891614636 0.1082303939991345 0.1332021615666419 -0.1992224378108299
  0.1352233231547439 -0.1976739986840646 -0.08982418163784585 0.1082200734452017 -0.06224335624792497 0.07516542122309218 -0.8501891178118154 -0.3535605152578257
  -0.08970078327115127 0.1073779442650219 0.1332119474475218 -0.1992367246213296 -0.8503343023752638 -0.3536243206068706 -0.06348754520308394 0.07502883241819695
7120000000 -0.09429681094855412 0.07465753988148896 -0.7469670571085 -0.538445752260887 0.1348156997503213 -0.1978045568589243 -0.08952690230968736 0.1076597655474025
  -0.7469668251617861 -0.5384455987865681 -0.09002165237627251 0.07829988461787818 -0.08966340975706148 0.108520539644893 0.1327756705226493 -0.1993320472466079
  0.134801675156046 -0.1977850707418748 -0.08965440855953626 0.1085101905288997 -0.06207014227271478 0.07519923660183922 -0.8508694346081124 -0.3519431699540543
  -0.08953367499353879 0.1076676986465573 0.1327854251578731 -0.1993463429939707 -0.851014741867522 -0.3520066991233147 -0.06331138493541708 0.07506640662783473
7125000000 -0.09415736765947409 0.07479338144739889 -0.7479043817245401 -0.537152757818986 0.1343937729501632 -0.1979144403455007 -0.08935893038591089 0.1079492375177151
  -0.7479041493525056 -0.53715260464999 -0.08987283885791254 0.07843153565685304 -0.08949274424716279 0.1088104143010024 0.1323489407061011 -0.1994404455456329
  0.1343797898315894 -0.19789494274107 -0.08948375921640844 0.1088000366485762 -0.06189685832721643 0.07523253838868854 -0.8515467932999006 -0.3503244459860911
  -0.08936569107915189 0.1079571924338934 0.1323586640754097 -0.1994547501419619 -0.851692222750753 -0.3503876987260217 -0.06313513404913393 0.07510346168697574
7130000000 -0.09401758019504029 0.07492888126059824 -0.7488395980846773 -0.5358581143897538 0.133971612389105 -0.1980231230657973 -0.08919008328704658 0.1082384461722094
  -0.7488393652876184 -0.5358579615271023 -0.08972368967808646 0.07856281946701034 -0.08932120284541661 0.1091000152329392 0.1319219757304134 -0.1995476321047703
  0.133957670770798 -0.1980036140931102 -0.08931223406738475 0.1090896090699763 -0.06172350599047789 0.07526532625299008 -0.8522211906832944 -0.3487043481972113
  -0.08919683192429009 0.1082464228879208 0.1319316678138117 -0.199561945462117 -0.8523667418204915 -0.3487673242590558 -0.06295879413078918 0.07513999719569207
7135000000 -0.09387744950331975 0.0750640380800765 -0.749772703129313 -0.5345618247980465 0.133549221658564 -0.1981306044428107 -0.08902036141847028 0.1085273887720734
  -0.7497724699075298 -0.5345616722427589 -0.08957420587130048 0.07869373483959995 -0.0891487860199625 0.1093893397067265 0.1314947792107249 -0.1996536063325212
  0.1335353215647326 -0.1981110842210541 -0.0891398335805603 0.1093789050593933 -0.06155008684430061 0.0752975998688666 -0.8528926235584643 -0.3470828814398745
  -0.08902709793435225 0.1085353872696256 0.1315044399884815 -0.199667928362888 -0.853038295876332 -0.3471455805756722 -0.06278236676996594 0.0751760127589392
7140000000 -0.09373697653875544 0.07519885066673329 -0.7507036937986916 -0.5332638918748734 0.1331266043515525 -0.1982368839111416 -0.08884976519466158 0.1088160625786212
  -0.750703460152487 -0.5332637396279715 -0.08942438847825394 0.07882428056815777 -0.08897549424811932 0.109678384988967 0.131067354763856 -0.1997583676490343
  0.1331127458060488 -0.1982173525595636 -0.08896655823320938 0.109667921883699 -0.06137660247322774 0.07532935891523748 -0.8535610887296674 -0.3454600505757523
  -0.08885648952384084 0.1088240828401195 0.1310769842165035 -0.1997726982643731 -0.8537068817219531 -0.345522472538338 -0.0626058535592636 0.0752115079865818
7145000000 -0.09359616226216977 0.07533331778341776 -0.7516325670329077 -0.5319643184574319 0.1327037640626363 -0.1983419609170039 -0.08867829503920972 0.109104464853323
  -0.7516323329625858 -0.5319641665199361 -0.0892742385458416 0.0789544554485436 -0.08880132801638611 0.1099671483468743 0.1306397060082666 -0.1998619154861095
  0.1326899470889552 -0.1983224185549118 -0.08879240851178502 0.1099566568103766 -0.06120305446453372 0.07536060307584259 -0.8542265830052743 -0.3438358604757502
  -0.08868500711636966 0.1091125068606705 0.1306493041166021 -0.199876254598324 -0.8543724961651499 -0.3438980050187543 -0.0624292560942847 0.07524648249341966
7150000000 -0.09345500764076958 0.07546743819496833 -0.7525593197719133 -0.5306631073891304 0.1322807043878922 -0.1984458349182278 -0.08850595138481882 0.1093925928578357
  -0.7525590852777821 -0.5306629557620608 -0.08912375712715515 0.07908425827897962 -0.08862628782044717 0.1102556270483056 0.1302118365640144 -0.1999642492872065
  0.1322669290091716 -0.1984262816649888 -0.08861738491192457 0.1102451071075529 -0.06102944440821174 0.07539133203926601 -0.8548891031977999 -0.34221031602003
  -0.08851265114466748 0.1094006565927337 0.1302214033090988 -0.1999785968081526 -0.8550351360178572 -0.3422721828978827 -0.06225257597362384 0.07528093589921266
7155000000 -0.09331351364814904 0.07560121066825244 -0.7534839489555321 -0.5293602615196192 0.1318574289248665 -0.1985485053842693 -0.08833273467331421 0.1096804438540339
  -0.7534837140378988 -0.5293601102039971 -0.08897294528148555 0.07921368786008903 -0.08845037416517229 0.1105438183617941 0.129783750052713 -0.2000653685074507
  0.1318436951638866 -0.1985289413593073 -0.08844148793845001 0.1105332700440301 -0.06085577389696428 0.07542154549896019 -0.8555486461239245 -0.340583422098038
  -0.08833942205058469 0.1096885292979813 0.1297932854158719 -0.2000797243489374 -0.855694798096184 -0.340645011065968 -0.06207581479885304 0.07531486782870701
7160000000 -0.09317168126429363 0.07573463397220628 -0.7544064515234632 -0.5280557837048191 0.1314339412725327 -0.1986499717962139 -0.08815864535564696 0.1099680151040405
  -0.7544062161826393 -0.5280556327016651 -0.08882180407432436 0.07934274299493418 -0.0882735875646211 0.1108317195565811 0.12935545009749 -0.2001652726136406
  0.1314202491517167 -0.1986303971190093 -0.08826471810537215 0.1108211428893186 -0.06068204452618956 0.07545124315326977 -0.8562052086045335 -0.3389551836085235
  -0.08816532028509848 0.1099761222383337 0.1293649540603136 -0.2001796366874307 -0.856351479220437 -0.3390164944225614 -0.06189897417451142 0.07534827791166042
7165000000 -0.09302951147558369 0.07586770687787502 -0.7553268244152938 -0.5267496768069519 0.1310102450312501 -0.1987502336467838 -0.08798368389190005 0.1102553038702571
  -0.7553265886515916 -0.526749526117286 -0.08867033457736491 0.07947142248905571 -0.08809592854204373 0.1111193279026479 0.1289269403229449 -0.200263961084253
  0.1309965945726635 -0.1987306484368722 -0.08808707593589161 0.1111087229136692 -0.06050825789397124 0.07548042470545605 -0.856858787464739 -0.3373256054595678
  -0.08799034630831848 0.1102634326759906 0.1289364128672884 -0.2002783333020649 -0.8570051762151533 -0.3373866378765459 -0.06172205570808854 0.0753811657828681
7170000000 -0.09288700527479661 0.0760004281584528 -0.7562450645705098 -0.5254419436945665 0.1305863438027215 -0.1988492904403425 -0.08780785075129273 0.1105423074153954
  -0.756244828384244 -0.5254417933194094 -0.08851853786850332 0.07959972515051086 -0.08791739762988528 0.1114066406707492 0.1284982243551081 -0.2003614334094506
  0.1305727350280718 -0.1988296948173136 -0.08790856196240275 0.1113960073881054 -0.06033441560106526 0.07550908986372018 -0.8575093795339106 -0.335694692568602
  -0.08781450058949178 0.1105504578734617 0.1285076654630909 -0.2003758136829578 -0.8576558859091294 -0.3357554463461578 -0.06154506101001476 0.07541353108218829
7175000000 -0.09274416366111005 0.07613279658932254 -0.7571611689285043 -0.5241325872425678 0.130162241189951 -0.1989471416929008 -0.08763114641218679 0.1108290230025081
  -0.7571609323199916 -0.5241324371829407 -0.08836641503183909 0.07972764978991251 -0.08773799536978648 0.1116936551324445 0.1280693058213974 -0.2004576890910877
  0.1301486741205879 -0.198927535776397 -0.08772917672649461 0.1116829935844561 -0.06016051925088783 0.07553723834122766 -0.8581569816457081 -0.3340624498624354
  -0.08763778360700786 0.1108371950935969 0.1280787154754043 -0.20047207733192 -0.8583036051354498 -0.3341229247590116 -0.06136799169364496 0.07544537345456814
7180000000 -0.09260098764010442 0.07626481094809689 -0.7580751344285875 -0.5228216103322493 0.1297379407972026 -0.199043786932122 -0.08745357136209139 0.1111154478950192
  -0.7580748973981478 -0.5228214605891717 -0.0882139671576759 0.07985519522046797 -0.08755772231258599 0.1119803685601314 0.127640188350577 -0.2005527276427145
  0.1297244154541173 -0.1990241708418384 -0.08754892077895406 0.1119696787753877 -0.05998657044950424 0.07556486985613245 -0.8588015906381057 -0.3324288822772779
  -0.08746019584840441 0.1111236415996186 0.1276495665332578 -0.2005671237624597 -0.858948330731515 -0.3324890780521242 -0.06119084937524646 0.07547669255006893
7185000000 -0.09245747822376472 0.07639647001465812 -0.7589869580099996 -0.5215090158513181 0.1293134462299568 -0.1991392256973275 -0.08727512609766752 0.1114015793567555
  -0.7589867205579545 -0.5215088664258107 -0.08806119534252145 0.07998236025801812 -0.0873765790183227 0.1122667782270771 0.1272108755727154 -0.2006465485895853
  0.1292999626337833 -0.1991195995530087 -0.08736779467976682 0.1122560602344364 -0.05981257080561447 0.07559198413160066 -0.8594432033534272 -0.3307939947587615
  -0.08728173781037145 0.1114097946551511 0.1272202222669852 -0.2006609524997893 -0.8595900595390745 -0.3308539111719362 -0.06101363567398356 0.07550748802389175
7190000000 -0.09231363643048258 0.07652777257119857 -0.7598966366119201 -0.5201948066939248 0.1288887610948704 -0.1992334575395007 -0.08709581112473265 0.1116874146519778
  -0.7598963987385918 -0.5201946575870082 -0.08790810068908775 0.08010914372107632 -0.08719456605623906 0.1125528814074525 0.1267813711191433 -0.2007391514686619
  0.1288753192658835 -0.1992138214609414 -0.08718579899811985 0.1125421352360416 -0.05963852193054163 0.07561858089583497 -0.8600818166383745 -0.3291577922619647
  -0.08710240999875797 0.1116956515242533 0.1267906863081823 -0.2007535630808302 -0.8602287884042583 -0.3292174290743375 -0.06083635221190456 0.07553775953640397
7195000000 -0.09216946328505779 0.07665871740226156 -0.7608041671734768 -0.5188789857606946 0.1284638889997325 -0.1993264820212929 -0.0869156269582675 0.1119729510454116
  -0.7608039288791911 -0.5188788369733889 -0.08775468430629035 0.08023554443086758 -0.08701168400477886 0.112838675376363 0.1263516786224111 -0.2008305358286196
  0.1284504889578489 -0.1993068361283357 -0.08700293431240334 0.1128279010555779 -0.05946442543821829 0.07564465988209811 -0.8607174273440568 -0.3275202797514384
  -0.08692221292857383 0.1119812094714482 0.1263609622896651 -0.2008449550542169 -0.8608645141776041 -0.3275796367246883 -0.06065900061392721 0.07556750675316388
7200000000 -0.09202495981869983 0.07678930329478172 -0.7617095466337608 -0.5175615559587541 0.1280388335534242 -0.1994182987170265 -0.08673457412241853 0.1122581858022787
  -0.7617093079188443 -0.5175614074920796 -0.08760094730924807 0.08036156121136795 -0.08682793345159355 0.1131241574098825 0.1259218017162472 -0.2009207012298532
  0.1280254753182018 -0.1993986431295612 -0.08681920121021194 0.1131133549693877 -0.05929028294517381 0.07567022082873763 -0.8613500323260238 -0.3258814622012239
  -0.08674114712399747 0.1122664657617557 0.1259310538454274 -0.2009351279803059 -0.8614972337140875 -0.3259405390978453 -0.06048158250782332 0.07559672934494677
7205000000 -0.09188012706902854 0.07691952903812597 -0.7626127719318342 -0.5162425202017614 0.1276135983658747 -0.1995089072127003 -0.08655265315050391 0.1125431161883282
  -0.7626125327966173 -0.5162423720567383 -0.08744689081928197 0.08048719288934364 -0.0866433149935405 0.1134093247850854 0.1254917440355157 -0.2010096472444802
  0.1276002819565129 -0.1994892420506634 -0.08663460028834613 0.1133984942548138 -0.05911609607052071 0.07569526347920945 -0.8619796284442928 -0.3242413445948812
  -0.08655921311837884 0.1125514176607224 0.125500964610599 -0.201024081431176 -0.8621269438731562 -0.3243001411781827 -0.06030409952420485 0.07562542698777047
7210000000 -0.09173496608007499 0.07704939342413408 -0.7635138400067446 -0.5149218814099346 0.1271881870480201 -0.1995983071059942 -0.08636986458501725 0.1128277394698675
  -0.7635136004515584 -0.514921733587583 -0.08729251596391424 0.08061243829439041 -0.08645782923668661 0.1136941747800793 0.1250615092161746 -0.2010973734563473
  0.1271749124833595 -0.1995786324893661 -0.08644913215281491 0.1136833161902324 -0.0589418664359409 0.07571978758210218 -0.8626062125633862 -0.3225999319255093
  -0.08637641145424468 0.1128360624344539 0.1250706982214037 -0.2011118149906368 -0.8627536415187609 -0.322658447959616 -0.06012655329650834 0.07565359936292143
7215000000 -0.09158947790228222 0.07717889524716003 -0.7644127477975345 -0.5135996425100824 0.1267626032117611 -0.1996864980062716 -0.08618620897763306 0.1131120529137941
  -0.7644125078227139 -0.5135994950114223 -0.08713782387686685 0.08073729625897329 -0.08627147679630748 0.1139787046740381 0.1246311008952327 -0.2011838794610333
  0.1267493705102833 -0.1996668140550768 -0.08626279741883545 0.1139678180550856 -0.0587675956656725 0.07574379289116089 -0.8632297815523564 -0.3209572291957686
  -0.08619274268330283 0.1131203973496457 0.1246402583151158 -0.2011983282542308 -0.8633773235193826 -0.3210154644456231 -0.05994894546097972 0.0756812461569791
7220000000 -0.091443663592505 0.07730803330411243 -0.7653094922432557 -0.5122758064356323 0.1263368504699212 -0.1997734795345844 -0.08600168688921025 0.1133960537876272
  -0.7653092518491351 -0.5122756592616837 -0.0869828156980598 0.08086176561846577 -0.08608425829689119 0.1142629117472343 0.1242005227107085 -0.2012691648658556
  0.1263236596497485 -0.19975378636889 -0.08607559671083571 0.1142519971299147 -0.05859328538649498 0.07576727916531151 -0.8638503322848213 -0.3193132414179072
  -0.08600820736644581 0.1134044196736147 0.1242096485300202 -0.2012836208292395 -0.8639979867480706 -0.3193711956492717 -0.05977127765665902 0.07570836706184325
7225000000 -0.09129752421401026 0.07743680639449609 -0.7662040702829775 -0.5109503761266586 0.1259109324362032 -0.1998592513236766 -0.08581629888979683 0.1136797393595385
  -0.7662038294698961 -0.5109502292784415 -0.08682749257360892 0.08098584521118944 -0.08589617437213687 0.1145467932810722 0.1237697783015872 -0.2013532292898721
  0.1258977835150991 -0.199839549063591 -0.0858875306624544 0.1145358506963916 -0.05841893722771598 0.0757902461686846 -0.8644678616389943 -0.3176679736137815
  -0.08582280607375659 0.1136881266743307 0.1237788725053677 -0.2013676923346862 -0.8646156280824674 -0.3177256465932382 -0.05959355152536529 0.07573496177475815
7230000000 -0.09115106083647576 0.0775652133204531 -0.7670964788558056 -0.5096233545299158 0.1254848527251483 -0.1999438130179878 -0.0856300455586337 0.1139631068983841
  -0.767096237624102 -0.5096232080084493 -0.08667185565582418 0.08110953387845418 -0.08570722566495752 0.1148303465581209 0.1233388713077787 -0.2014360723638871
  0.125471745720517 -0.1999241017836593 -0.0856985999165433 0.1148193760373539 -0.05824455282115602 0.07581269367063979 -0.8650823664977193 -0.3160214308148761
  -0.08563653938451173 0.1139715156204475 0.1233479338813346 -0.2014505424013414 -0.8652302444048496 -0.3160788223098326 -0.05941576871167876 0.07576102999833871
7235000000 -0.09100427453599053 0.07769325288680377 -0.7679867149008863 -0.5082947445988616 0.1250586149520932 -0.2000271642736552 -0.08544292748415946 0.1142461536737357
  -0.7679864732509034 -0.5082945984051666 -0.0865159061032067 0.08123283046459699 -0.08551741282748002 0.1151135688621462 0.1229078053700754 -0.2015176937304541
  0.1250455498809792 -0.2000074441852719 -0.08550880512516651 0.1151025704368353 -0.05807013380113448 0.07583462144578922 -0.8656938437484989 -0.3143736180623341
  -0.08544940788718511 0.1142545837813351 0.1229168362989795 -0.2015321706717253 -0.8658418326021498 -0.3144307278410187 -0.05923793086292739 0.07578657144059608
7240000000 -0.09085716639505333 0.07782092390108829 -0.7688747753574267 -0.5069645492936934 0.1246322227331279 -0.2001093047585187 -0.08525494526401312 0.114528876955913
  -0.7688745332895084 -0.5069644034287881 -0.08635964508044613 0.08135573381702245 -0.08532673652104687 0.1153964574781449 0.1224765841301099 -0.2015980930438792
  0.1246191996122167 -0.2000895759363058 -0.08531814694960312 0.1153854311801003 -0.05789568180445504 0.07585602927402246 -0.8663022902835308 -0.3127245404069725
  -0.08526141217945395 0.1145373284271113 0.1224855834002009 -0.2016125768001124 -0.8664503895659982 -0.3127813682384412 -0.05906003962916876 0.07581158581496306
7245000000 -0.09070973750257126 0.077948225173608 -0.7697606571647042 -0.5056327715813713 0.1242056796850534 -0.2001902341521224 -0.08506609950504024 0.1148112740160148
  -0.769760414679196 -0.5056326260462763 -0.0862030737584176 0.08147824278624251 -0.08513519741621478 0.1156790096923768 0.1220452112303126 -0.2016772699702265
  0.1241926985306708 -0.200170496716342 -0.08512662606034528 0.1156679555536765 -0.05772119847038955 0.07587691694052946 -0.8669077029997383 -0.3110742029093087
  -0.08507255286819969 0.1148197468286728 0.122054178827696 -0.2016917604525355 -0.8670559121927498 -0.3111307485634439 -0.05888209666317346 0.07583607284031946
7250000000 -0.09056198895385839 0.07807515551746677 -0.7706443572620795 -0.504299414435652 0.1237789894253395 -0.2002699521457177 -0.08487639082329394 0.1150933421259507
  -0.7706441143593309 -0.5042992692313865 -0.08604619331417809 0.08160035622591615 -0.08494279619275748 0.115961222792398 0.1216136903138695 -0.2017552241873192
  0.1237660502534519 -0.2002502062166681 -0.08493424313710252 0.1159501408453875 -0.05754668544066446 0.07589728423582554 -0.8675100787988043 -0.3094226106395797
  -0.08488283056951409 0.1151018362577272 0.1216226262249169 -0.2017697213067864 -0.8676583973835216 -0.3094788738870931 -0.05870410362041011 0.07586003224101774
7255000000 -0.09041392185063424 0.07820171374861262 -0.7715258725890111 -0.5029644808371156 0.1233521555720829 -0.2003484584422663 -0.08468581984404044 0.1153750785584731
  -0.7715256292693724 -0.5029643359646988 -0.08588900493096356 0.08172207299288947 -0.08474953353966509 0.116243094067094 0.1211820250246798 -0.2018319553847434
  0.1233392583982966 -0.2003287041402793 -0.08474099886879838 0.1162319843443866 -0.05737214435944407 0.07591713095577518 -0.8681094145872053 -0.3077697686777705
  -0.08469224590870211 0.1153835939868251 0.1211909292360292 -0.2018464590524232 -0.8682578420442228 -0.3078257492902027 -0.05852606215902618 0.07588346374690871
7260000000 -0.09026553730102102 0.07832789868587943 -0.7724052000850694 -0.5016279737731962 0.1229251817439639 -0.2004257527564413 -0.0844943872017625 0.1156564805872089
  -0.7724049563488936 -0.501627829233648 -0.0857315097981842 0.08184339194723587 -0.08455541015514528 0.1165246208067126 0.1207502190073133 -0.2019074632638519
  0.1229123265835257 -0.2004059902018828 -0.0845468939535724 0.1165134833411889 -0.05719757687331591 0.07593645690161528 -0.8687057072762434 -0.3061156821136281
  -0.08450079952028616 0.1156650172893919 0.1207590915058696 -0.2019219733907693 -0.8688542430855889 -0.3061713798633547 -0.05834797393983244 0.0759063670933664
7265000000 -0.09011683641954166 0.07845370915102833 -0.7732823366899498 -0.5002898962382127 0.1224980715602048 -0.2005018348146313 -0.08430209354016201 0.1159375454866914
  -0.7732820925375907 -0.5002897520325517 -0.08557370911142062 0.08196431195229595 -0.08436042674662102 0.1168058003028971 0.1203182759069686 -0.2019817475377661
  0.1224852584280018 -0.2004820641278986 -0.08435192909878152 0.1167946351277048 -0.05702298463127415 0.0759552618799804 -0.8692989537820808 -0.3044603560466916
  -0.08430849204800786 0.1159461034397588 0.120327116679903 -0.2019962640349182 -0.8694475974232176 -0.3045157707069197 -0.05816984062628508 0.07592874202131399
7270000000 -0.08996782032711692 0.07857914396878958 -0.7741572793434855 -0.4989502512333943 0.1220708286405278 -0.2005767043549409 -0.08410893951216428 0.1162182705323926
  -0.7741570347753007 -0.4989501073626387 -0.08541560407241949 0.08208483187471761 -0.08416458403073381 0.1170866298487192 0.1198861993694304 -0.2020548079313786
  0.1220580575510868 -0.2005569256564626 -0.08415610502099773 0.1170754369972736 -0.05684836928470423 0.07597354570292575 -0.8698891510257738 -0.3028037955863088
  -0.08411532414483378 0.1162268497131962 0.1198950084041812 -0.202069330709736 -0.8700379019776004 -0.3028589269310815 -0.05799166388446769 0.07595058827724877
7275000000 -0.08981849015106248 0.07870420196690442 -0.7750300249856654 -0.497609041766913 0.1216434566051117 -0.2006503611271929 -0.08391492577992167 0.1164986530007551
  -0.7750297800020139 -0.4976088982320828 -0.08525719588908842 0.08220495058449641 -0.08396788273334242 0.1173671067387129 0.1194539930410271 -0.2021266441813561
  0.1216307275726001 -0.2006305745374272 -0.08395942244600958 0.1173558862446957 -0.05667373248736633 0.07599130818795181 -0.870476295933308 -0.3011460058516618
  -0.08392129647295694 0.1165072533859449 0.1194627703252989 -0.2021411731518634 -0.8706251536741585 -0.3012008536558579 -0.0578134453830738 0.07597190561326764
7280000000 -0.08966884702508544 0.07882888197616679 -0.7759005705566451 -0.4962662708539137 0.1212159590745508 -0.2007228048929298 -0.08372005301481496 0.1167786901692227
  -0.7759003251578878 -0.4962661276560275 -0.08509848577549139 0.08232466695501567 -0.08377032358952208 0.117647228268907 0.1190216605685883 -0.2021972560361414
  0.1212032721127753 -0.2007030105323638 -0.08376188210882105 0.117635980166267 -0.05649907589537947 0.07600854915802739 -0.871060385435631 -0.299486991971786
  -0.08372640970380094 0.1167873117352477 0.1190304060903528 -0.2022117911097177 -0.871209349443275 -0.2995415560111236 -0.05763518679338961 0.07599269378709296
7285000000 -0.08951889208928081 0.07895318283046522 -0.7767689129967636 -0.494921941516542 0.1207883396698114 -0.2007940354254163 -0.08352432189745851 0.1170583793162761
  -0.776768667183263 -0.4949217986566172 -0.0849394749518432 0.08244397986308689 -0.0835719073435638 0.117926991736858 0.118589205599403 -0.202266643255955
  0.1207756947922193 -0.2007742334145639 -0.08356348475365331 0.1179157160598107 -0.05632440116720386 0.07602526844161474 -0.8716414164686893 -0.2978267590855939
  -0.08353066451802267 0.1170670220393825 0.1185979193468986 -0.2022811843434956 -0.8717904862203329 -0.2978810391366314 -0.05745688978927404 0.07601295256209657
7290000000 -0.08936862649012778 0.07907710336682494 -0.7776350492465577 -0.4935760567839733 0.1203606020121904 -0.2008640525096388 -0.08332773311770243 0.1173377177214607
  -0.7776348030186792 -0.4935759142630298 -0.08478016464450354 0.08256288818898969 -0.08337263474897713 0.1182063944416849 0.1181566317811763 -0.2023348056127977
  0.1203479992318682 -0.200844242969041 -0.08336423113394156 0.1181950912247124 -0.05614970996362507 0.07604146587269243 -0.8722193859734616 -0.2961653123418967
  -0.08333406160551542 0.1173463815776942 0.118165313742908 -0.2023493526251745 -0.8723685609457477 -0.2962193081820339 -0.05727855604714219 0.07603268170732651
7295000000 -0.08921805138048515 0.07920064242544964 -0.7784989762467762 -0.4922286196924449 0.1199327497232722 -0.2009328559423081 -0.08313028737463497 0.1176167026654219
  -0.7784987296048875 -0.4922284775115005 -0.08462055608597192 0.08268139081651268 -0.08317250656848517 0.1184854336841006 0.1177239427619877 -0.2024017428904522
  0.1199201890529468 -0.2009130389925304 -0.083164122012337 0.1184741029619515 -0.05597500394773684 0.07605714129077985 -0.8727942908959939 -0.2945026568994257
  -0.08313660166541241 0.1176253876306267 0.1177325929267282 -0.2024162957385136 -0.8729435705650046 -0.294556368306905 -0.0571001872459444 0.0760518809975308
7300000000 -0.08906716791958719 0.07932379884976379 -0.7793606909383974 -0.4908796332852839 0.1195047864248868 -0.2010004455318591 -0.08293198537658637 0.1178953314299366
  -0.7793604438828676 -0.4908794914453566 -0.08446065051488069 0.08279948663299354 -0.08297152357402819 0.1187641067664468 0.1172911421902485 -0.2024674548844835
  0.1194922678769248 -0.2009806212934913 -0.08296315816070496 0.118752748574136 -0.0558002847849235 0.07607229454096075 -0.8733661281874366 -0.2928387979268528
  -0.08293828540608808 0.1179040374797549 0.1172997605470366 -0.2024820134790577 -0.8735155120286895 -0.292892224680762 -0.05692178506715019 0.07607055021318371
7305000000 -0.08891597727303856 0.07944657148645454 -0.7802201902626444 -0.4895291006129358 0.1190767157390675 -0.2010668210984529 -0.08273282784113137 0.1181736012979449
  -0.7802199427938457 -0.489528959115044 -0.08430044917598899 0.08291717452935955 -0.08276968654675929 0.1190424109927263 0.1168582337146589 -0.202531941402242
  0.1190642393254752 -0.2010469896921076 -0.08276134036012267 0.1190310253655347 -0.0556255541428426 0.07608692547390733 -0.8739348948040774 -0.2911737406028133
  -0.0827391135451624 0.1181823284078179 0.116866820252801 -0.2025465056541357 -0.8740843822925333 -0.2912268824830883 -0.0567433511947261 0.07608868914051033
7310000000 -0.08876448061280946 0.07956895918551388 -0.7810774711609978 -0.4881770247329966 0.1186485412880083 -0.2011319824739758 -0.08253281549509035 0.1184515095535827
  -0.7810772232793041 -0.4881768835781581 -0.08413995332017586 0.08303445340016791 -0.08256699627704629 0.1193203436686376 0.1164252209841663 -0.2025952022628632
  0.1186361070204315 -0.2011121440202872 -0.08255866940088261 0.119308930642112 -0.05545081369140779 0.07610103394590373 -0.8745005877073819 -0.2895074901159275
  -0.08253908680950243 0.1184602576987505 0.1164337756932358 -0.2026097720828627 -0.8746501783174364 -0.2895603469033496 -0.05656488731511897 0.07610629757151176
7315000000 -0.08861267911722966 0.07969096080028096 -0.7819325305752174 -0.4868234087102409 0.1182202666940217 -0.2011959295020406 -0.08233194907453395 0.1187290534822151
  -0.7819322822810043 -0.4868232678994732 -0.08397916420443334 0.08315132214364655 -0.08236345356446882 0.1195979021016064 0.1159921076479225 -0.2026572372972692
  0.118207874583746 -0.2011760841216635 -0.08235514608248704 0.1195864617115596 -0.05527606510277037 0.0761146198188698 -0.8750632038640249 -0.2878400516648199
  -0.08233820593522553 0.1187378226377164 0.1160006305177597 -0.2026718125961429 -0.8752128970695159 -0.2878926231410227 -0.05638639511723478 0.07612337530398997
7320000000 -0.08846057397098363 0.07981257518748411 -0.7827853654473528 -0.4854682556166501 0.1177918955794961 -0.2012586620379873 -0.08213022932478413 0.1190062303704678
  -0.7827851167409984 -0.4854681151509714 -0.08381808309185894 0.08326777966173424 -0.08215905921781974 0.1198750836008215 0.1155588973552415 -0.2027180463481694
  0.117779545637447 -0.2012388098515951 -0.08215077121365025 0.1198636158833318 -0.05510131005130146 0.07612768296038518 -0.8756227402459276 -0.2861714304581433
  -0.08213647166770129 0.1190150205111403 0.1155673883759539 -0.2027326270366668 -0.8757725355201338 -0.2862237164056099 -0.05620787629241934 0.07613992214157321
7325000000 -0.0883081663651038 0.0799338012072833 -0.7836359727197639 -0.4841115685314464 0.1173634315668541 -0.201320179948881 -0.08192765700041697 0.1192830375062601
  -0.7836357236016478 -0.4841114284118734 -0.08365671125164827 0.08338382486012159 -0.08195381405510022 0.1201518854772659 0.1151255937555565 -0.2027776292700616
  0.1173511238035964 -0.2013003210771665 -0.08194554561229528 0.1201403904686771 -0.05492655021357408 0.0761402232437131 -0.8761791938302987 -0.2845016317145973
  -0.08193388476155353 0.1192918486067402 0.1151340529175187 -0.2027922152589151 -0.8763290906459393 -0.2845536319166659 -0.05602933253443863 0.07615593789374049
7330000000 -0.08815545749696478 0.08005463772331241 -0.784484349335136 -0.4827533505411167 0.1169348782785092 -0.2013804831135149 -0.08172423286526434 0.1195594721788375
  -0.7844840998056406 -0.4827532107686673 -0.08349504995908685 0.08349945664829128 -0.0817477189035215 0.1204283050437527 0.1146922004983778 -0.2028359859292311
  0.1169226127042476 -0.2013606176771865 -0.08173947010555366 0.1204167827806738 -0.05475178726834381 0.0761522405478232 -0.8767325615996651 -0.2828306606629503
  -0.08173044598066367 0.1195683042135607 0.1147006277922318 -0.2028505771291572 -0.8768825594289003 -0.282882374903812 -0.05585076553945784 0.07617142237584658
7335000000 -0.08800244857027621 0.08017508360272124 -0.785330492236496 -0.4813936047394478 0.1165062393368245 -0.2014395714224068 -0.081519957692417 0.1198355316788043
  -0.785330242296006 -0.4813934653151387 -0.08333310049554223 0.08361467393955886 -0.08154077459950268 0.1207043396149562 0.1142587212332511 -0.2028931162037528
  0.1164940159614032 -0.2014196995421898 -0.08153254552976237 0.1206927901342616 -0.05457702289653077 0.07616373475741586 -0.8772828405419142 -0.2811585225420591
  -0.0815261560981714 0.1198443846220053 0.1142671166499056 -0.2029077125254518 -0.877432938856347 -0.2812099506067638 -0.0556721770060218 0.07618637540914699
7340000000 -0.08784914079507609 0.08029513771621849 -0.7861743983672344 -0.4800323342275516 0.1160775183640695 -0.2014974447778007 -0.08131483226422546 0.1201112132981562
  -0.7861741480161353 -0.4800321951524 -0.08317086414845512 0.08372947565111337 -0.0813329819886679 0.120979986507448 0.1138251596097136 -0.20294901998349
  0.1160653371969724 -0.2014775665744342 -0.08132477273046534 0.1209684098462769 -0.05440225878120135 0.07617470576294601 -0.8778300276503271 -0.2794852226008926
  -0.08132101589647787 0.1201200871238687 0.113833523140345 -0.2029636213376474 -0.8779802259210032 -0.2795363642753461 -0.05549356863503312 0.07620079682082259
7345000000 -0.08769553538772375 0.08041479893811353 -0.7870160646711135 -0.4786695421138975 0.1156487189823787 -0.2015541030936648 -0.08110885737230272 0.1203865143303134
  -0.7870158139097954 -0.4786694033889201 -0.08300834221133081 0.08384386070405778 -0.0811243419258471 0.1212552430397283 0.113391519277253 -0.2030036971700938
  0.1156365800327292 -0.2015342186879027 -0.08111615256240914 0.1212436392354847 -0.05422749660754742 0.07618515346064604 -0.8783741199236195 -0.2778107660985493
  -0.0811150261672464 0.1203954090123701 0.1133998509133045 -0.2030183034673819 -0.8785244176210275 -0.2778616211695193 -0.05531494212973318 0.07621468644400449
7350000000 -0.08754163357089186 0.08053406614635912 -0.7878554880922953 -0.4773052315143407 0.1152198448137081 -0.2016095462956923 -0.08090203381752466 0.120661432070153
  -0.7878552369211477 -0.4773050931405536 -0.08284553598373054 0.08395782802344999 -0.08091485527507147 0.1215301065322614 0.1129578038852637 -0.2030571476770044
  0.1152077480902692 -0.2015896558082994 -0.08090668588954152 0.121518475622614 -0.05405273806286862 0.07619507775254959 -0.8789151143659757 -0.2761351583042784
  -0.08090818771140554 0.1206703475821867 0.1129661036184461 -0.2030717588280828 -0.87906551096005 -0.2761857265593928 -0.05513629919567965 0.07622804411779817
7355000000 -0.08738743657355882 0.08065293822259383 -0.788692665575353 -0.4759394055521518 0.1147908994797944 -0.2016637743212975 -0.08069436241003429 0.1209359638140422
  -0.7886924139947684 -0.475939267530572 -0.08268244677126106 0.08407137653834322 -0.08070452290957322 0.1218045743075083 0.1125240170830057 -0.2031093714294498
  0.1147788449909687 -0.2016438778730508 -0.08069637358501047 0.1217929163303897 -0.05387798483655194 0.07620447854651512 -0.8794530079870921 -0.2744584044975015
  -0.08070050133914951 0.1209449001294846 0.1125322849052968 -0.2031239873449654 -0.8796035029472095 -0.2745086857252524 -0.0549576415407246 0.07624086968730892
7360000000 -0.08723294563100074 0.08077141405218441 -0.7895275940652904 -0.474572067358047 0.1143618866021109 -0.201716787119618 -0.08048584396924031 0.1212101068598711
  -0.7895273420756641 -0.4745719296896906 -0.08251907588556592 0.08418450518182681 -0.08049334571178308 0.1220786436899608 0.1120901625195615 -0.2031603683644441
  0.1143498743559406 -0.2016968848313039 -0.08048521653116128 0.1220669586835685 -0.05370323862005239 0.0762133557562493 -0.8799877978022111 -0.2727805099678315
  -0.08049196786994062 0.1212190639519535 0.1120983984232064 -0.203174988955033 -0.880138390597194 -0.2728305039575753 -0.05477897087499507 0.07625316300366583
7365000000 -0.08707816198478276 0.08088949252426844 -0.7903602705075609 -0.4732032200702186 0.113932809801827 -0.2017685846515107 -0.08027647932382083 0.121483858507086
  -0.7903600181092904 -0.4732030827561015 -0.08235542464431513 0.08429721289106688 -0.08028132457332851 0.1223523120061752 0.1116562438437937 -0.2032101384307891
  0.1139208398059941 -0.2017486766439243 -0.08027321561953513 0.1223406000089703 -0.05352850110687317 0.07622170930133035 -0.8805194808321599 -0.2711014800150935
  -0.08028258813251003 0.1214928363488386 0.1116644478213047 -0.203224763607077 -0.880670170930278 -0.271151186557054 -0.05460028891086929 0.07626492392404613
7370000000 -0.08692308688274994 0.08100717253179664 -0.7911906918480869 -0.4718328668343624 0.1135036726997651 -0.2018191668895505 -0.08006626931172336 0.1217572160567215
  -0.7911904390415723 -0.4718327298755 -0.08219149437119495 0.0844094986073473 -0.08006846039503041 0.122625576584806 0.1112222647043026 -0.2032586815890705
  0.113491744961591 -0.2017992532834955 -0.08006037175086543 0.1226138376355137 -0.05335377399254457 0.07622953910723121 -0.8810480541033929 -0.2694213199493437
  -0.08007236296486001 0.1217662146209754 0.1112304367484592 -0.2032733112616738 -0.8811988409723621 -0.2694707388346118 -0.05442159736295589 0.07627615231170019
7375000000 -0.08676772157901901 0.08112445297157543 -0.7920188550332787 -0.4704610108037079 0.1130744789163577 -0.2018685338180302 -0.0798552147801668 0.1220301768114345
  -0.7920186018189188 -0.4704608742011161 -0.08202728639589731 0.08452136127610983 -0.07985475408690214 0.12289843475664 0.1107882287493842 -0.203305997811659
  0.1130625934428038 -0.2018486147343162 -0.07984668583507798 0.1228866688942487 -0.05317905897460532 0.07623684510534308 -0.881573514648026 -0.2677400350908903
  -0.07986129321426413 0.12203919607082 0.1107963688532329 -0.2033206318911859 -0.881724397755007 -0.2677891661114276 -0.05424289794807146 0.07628684803597509
7380000000 -0.08661206733396827 0.08124133274430943 -0.7928447570100481 -0.46908765513905 0.1126452320716069 -0.2019166854329563 -0.0796433165856421 0.1223027380755375
  -0.7928445033882482 -0.4690875188937443 -0.08186280205410899 0.08463279984699545 -0.07964020656814513 0.1231708838546295 0.110354139626987 -0.2033520870827081
  0.1126333888692739 -0.2018967609923985 -0.07963215879128477 0.1231590911183914 -0.05300435775258059 0.07624362723299867 -0.8820958595038794 -0.2660576307703122
  -0.07964937973726928 0.1223117780024844 0.1103622477838423 -0.2033667254797583 -0.882246838315482 -0.2661064737189533 -0.05406419238521774 0.07629701097233953
7385000000 -0.08645612541422802 0.08135781075464416 -0.7936683947258375 -0.4677128030087758 0.1122159357850402 -0.2019636217420493 -0.0794305755939137 0.1225748971550306
  -0.7936681406970032 -0.4677126671217709 -0.08169804268750055 0.08474381327388469 -0.07942481876714777 0.123442921213927 0.1099200009846709 -0.2033969493981514
  0.1122041348601688 -0.2019436920654668 -0.07941679154778485 0.1234311016433572 -0.0528296720279617 0.07624988543349516 -0.8826150857145137 -0.2643741123284811
  -0.07943662339969605 0.1225839577217692 0.1099280771881135 -0.2034115920233188 -0.8827661596967976 -0.2644226669989329 -0.0538854823955593 0.0763066410024078
7390000000 -0.08629989709267073 0.08147388591120824 -0.794489765128631 -0.4663364575888955 0.1117865936756699 -0.2020093427647384 -0.07921699268001993 0.1228466513576359
  -0.7944895106931693 -0.466336322061207 -0.08153300964371461 0.08485440051493855 -0.07920859162148258 0.1237145441719181 0.1094858164695631 -0.2034405847657029
  0.1117748350341404 -0.2019894079729533 -0.07920058504205894 0.123702697806795 -0.05265500350418501 0.07625561965611732 -0.8831311903292743 -0.2626894851165771
  -0.07922302507664006 0.1228557325361966 0.1094938607134415 -0.2034552315295749 -0.8832823589477466 -0.2627377513034213 -0.05370676970240074 0.07631573801396375
7395000000 -0.08614338364840053 0.0815895571266563 -0.7953088651669774 -0.4649586220630723 0.1113572093619499 -0.2020538485321619 -0.07900256872827417 0.1231179979928303
  -0.7953086103252988 -0.4649584868957143 -0.08136770427635465 0.08496456053263898 -0.07899152607790227 0.1239857500682567 0.1090515897283178 -0.2034829932048536
  0.1113454930092823 -0.2020339087459987 -0.07898354022076846 0.123973876948621 -0.05248035388661122 0.07626082985616077 -0.8836441704033277 -0.2610037544961105
  -0.0790085856524716 0.1231270997550431 0.1090596020067473 -0.2034976440180127 -0.8837954331229447 -0.2610517319948069 -0.0535280560311636 0.07632430190098499
7400000000 -0.08598658636674253 0.08170482331771131 -0.7961256917900118 -0.463579299622651 0.1109277864617338 -0.2020971390871625 -0.0787873046322656 0.1233889343718789
  -0.7961254365425273 -0.4635791648166382 -0.08120212794497234 0.08507429229382994 -0.07877362309233692 0.1242565362448974 0.108617324407072 -0.2035241747468706
  0.1109161124030884 -0.202077194427446 -0.07876565803975122 0.1242446364110531 -0.05230572488250312 0.07626551599495503 -0.8841540229977025 -0.2593169258389409
  -0.07879330602083899 0.1233980566893745 0.1086253047144354 -0.2035388295198948 -0.8843053792828707 -0.2593646144458276 -0.05334934310936289 0.07633233256366716
7405000000 -0.08582950653923202 0.08181968340520705 -0.7969402419474717 -0.4621984934666873 0.1104983285922335 -0.2021392144842858 -0.07857120129485912 0.1236594578078683
  -0.7969399862945963 -0.4621983590230345 -0.08103628201505549 0.08518359476975772 -0.07855488362989187 0.1245269000461308 0.1081830241514044 -0.2035641294347932
  0.1104866968324099 -0.2021192650718404 -0.0785469394640179 0.1245149735386435 -0.05213111820100485 0.07626967803988592 -0.88466074517933 -0.2576290045272959
  -0.07857718708466621 0.1236686006520779 0.1081909724823515 -0.2035787880782579 -0.8848121944939076 -0.257676404039592 -0.0531706326665841 0.07633982990844698
7410000000 -0.08567214546360298 0.08193413631413089 -0.7977525125897211 -0.4608162068019797 0.1100688393699754 -0.2021800747897758 -0.07835425962819696 0.1239295656157403
  -0.7977522565318708 -0.4608160727217002 -0.08087016785801569 0.08529246693611192 -0.07833530866484284 0.1247968388186162 0.1077486926062926 -0.2036028573234318
  0.1100572499134134 -0.2021601207454246 -0.0783273854677511 0.1247848856783145 -0.05195653555311936 0.07627331596441936 -0.8851643340210844 -0.2559399959537901
  -0.07836022975615448 0.1239387289578952 0.10775660895574 -0.2036175197479094 -0.8853158758283803 -0.2559871061695957 -0.0529919264344583 0.07634679384802696
7415000000 -0.08551450444377666 0.08204818097366615 -0.7985625006677703 -0.4594324428430951 0.10963932241076 -0.2022197200815736 -0.0781364805536978 0.124199255112325
  -0.7985622442053641 -0.4594323091272034 -0.08070378685117482 0.08540090777306594 -0.07811489918063444 0.1250663499114179 0.1073143334160708 -0.2036403584793653
  0.1096277752615397 -0.2021997615261367 -0.07810699703429912 0.1250543701793913 -0.0517819786516867 0.0762764297481234 -0.8856647866018266 -0.2542499055214422
  -0.07814243495678359 0.1242084389234576 0.1073222177792023 -0.2036550245954269 -0.8858164203646026 -0.2542967262397423 -0.05281322614663963 0.07635322430139879
7420000000 -0.0853565847898497 0.08216181631723463 -0.7993702031332959 -0.4580472048124024 0.109209781329619 -0.2022581504493125 -0.07791786500205801 0.124468523616375
  -0.7993699462667541 -0.4580470714619109 -0.08053714037775236 0.08550891626531777 -0.07789365616987436 0.125335430676036 0.1068799502243874 -0.2036766329809372
  0.1091982764914599 -0.2022381875036061 -0.07788577515617343 0.1253234243936363 -0.05160744921136172 0.07627901937669124 -0.8861621000064402 -0.2525587386436977
  -0.07792380361731091 0.1244777278673181 0.1068878025966541 -0.2036913026991537 -0.8863138251869118 -0.252605269664363 -0.05263453353878018 0.07635912119386698
7425000000 -0.08519838781808146 0.08227504128253919 -0.8001756169386632 -0.4566604959400975 0.1087802197407732 -0.2022953659943147 -0.07769841391325069 0.124737368448598
  -0.8001753596684078 -0.4566603629560207 -0.08037022982685141 0.08561649140213051 -0.0776715806343317 0.1256040784664433 0.1064455466741635 -0.203711680918254
  0.108768757217035 -0.2022753987791499 -0.07766372083504597 0.1255920456752833 -0.05143294894859173 0.07628108484196409 -0.8866562713258781 -0.2508665007444426
  -0.07770433667777112 0.1247465931099853 0.1064533670512831 -0.2037263541491958 -0.886808087385712 -0.2509127418682329 -0.0524558503485059 0.07636448445707206
7430000000 -0.08503991485088228 0.08238785481160618 -0.8009787390369457 -0.4552723194642374 0.1083506412575902 -0.2023313668295885 -0.07747812823652715 0.1250057869316918
  -0.8009784813634017 -0.4552721868475878 -0.08020305659344514 0.08572363217737319 -0.07744867358493204 0.1258722906391174 0.1060111264075497 -0.2037455023931811
  0.1083392210512733 -0.2023113954657701 -0.0774408350817436 0.1258602313810714 -0.05125847958159356 0.07628262614195341 -0.8871472976571985 -0.2491731972580259
  -0.07748403508747766 0.125015031973958 0.1060189147855071 -0.2037601790474199 -0.8872992040575192 -0.2492191482865869 -0.05227717831539237 0.07636931402901492
7435000000 -0.08488116721680002 0.08250025585082804 -0.8017795663819482 -0.4538826786307656 0.1079210494925435 -0.2023661530798228 -0.07725700893041519 0.1252737763903764
  -0.8017793083055432 -0.4538825463825563 -0.08003562207836239 0.08583033758956099 -0.07722493604175326 0.1261400645530765 0.1055766930658843 -0.2037780975193398
  0.1079096716062881 -0.2023461776881486 -0.07721711891624637 0.1261279788702796 -0.05108404283033064 0.07628364328086377 -0.8876351761036143 -0.2474788336292749
  -0.07726289980502211 0.1252830417837575 0.1055844494409312 -0.2037927775074491 -0.8877871723049977 -0.2475244943651451 -0.05209851918093841 0.07637360985407921
7440000000 -0.08472214625050684 0.0826122433510057 -0.8025780959282304 -0.4524915766935438 0.1074914480571693 -0.2023997248813846 -0.07703505696271988 0.1255413341514291
  -0.8025778374493934 -0.4524914448147865 -0.07986792768827375 0.08593660664189638 -0.07700036903402332 0.1264073975699121 0.1051422502896515 -0.2038094664221035
  0.1074801124932561 -0.2023797455826434 -0.07699257336768146 0.1263952855047605 -0.05090964041649022 0.07628413626911555 -0.8881199037745281 -0.2457834153135134
  -0.07704093179827341 0.1255506198659621 0.1051499746583062 -0.2038241496546602 -0.8882719892370063 -0.2458287855601254 -0.05191987468854368 0.0763773718830557
7445000000 -0.08456285329278626 0.08272381626739088 -0.8033743246311248 -0.4510990169143808 0.107061840562025 -0.2024320823823142 -0.07681227331052336 0.1258084575437179
  -0.8033740657502862 -0.4510988854060885 -0.07969997483567622 0.08604243834230914 -0.07677497360011364 0.1266742870538244 0.1047078017184383 -0.2038396092385948
  0.107050547322375 -0.202412099297285 -0.07676719947431884 0.126662148648974 -0.05073527406345982 0.07628410512336645 -0.8886014777855777 -0.2440869477765832
  -0.07681813204437708 0.125817763549241 0.1047154940774862 -0.2038542956261788 -0.8887536519686404 -0.2441320273382623 -0.05174124658348088 0.07638060007316416
7450000000 -0.08440328969051863 0.0828349735597288 -0.804168249446763 -0.4497050025630595 0.1066322306166473 -0.2024632257423199 -0.0765886589601834 0.1260751438982349
  -0.8041679901643566 -0.4497048714262444 -0.07953176493887834 0.08614783170349719 -0.0765487507875362 0.1269407303716552 0.1042733509908932 -0.2038685261176809
  0.1066209797028218 -0.2024432389917713 -0.07654099828356963 0.1269285656700225 -0.05056094549630415 0.07628354986653488 -0.8890798952586785 -0.242389436494856
  -0.07659450152975718 0.1260844701643879 0.1042810113373861 -0.2038832155708769 -0.8892321576212709 -0.2424342251768247 -0.05156263661287196 0.07638329438807794
7455000000 -0.084243456796668 0.08294571419230039 -0.8049598673320941 -0.4483095369173717 0.1062026218295105 -0.2024931551327745 -0.07636421490733382 0.1263413905481302
  -0.8049596076485555 -0.4483094061530449 -0.07936329942198539 0.08625278574296692 -0.07632170165293929 0.1272067248929231 0.1038389017446834 -0.2038962172199695
  0.1061914132427116 -0.2024731648374629 -0.0763139708519787 0.1271945339376845 -0.05038665644174015 0.07628247052782151 -0.8895551533220659 -0.2406908869552558
  -0.07637004125011275 0.1263507370443547 0.1038465300759403 -0.2039109096493681 -0.889707503322593 -0.2407353845636353 -0.05138404652566105 0.07638545479794577
7460000000 -0.08408335597026634 0.08305603713396469 -0.8057491752449137 -0.4469126232631395 0.1057730178079837 -0.2025218707367101 -0.07613894215688317 0.1266071948287468
  -0.8057489151606811 -0.4469124928723128 -0.07919457971488275 0.08635729948307383 -0.0760938272621023 0.1274722679898574 0.1034044576164537 -0.2039226827178056
  0.1057618515490541 -0.2025018770173784 -0.07608611824522193 0.127460050824449 -0.05021240862811455 0.07628086714273154 -0.8900272491103379 -0.2389913046552756
  -0.07614475221041941 0.1266165615242861 0.1034120539300594 -0.203937378034003 -0.8901796862066617 -0.2390355109970865 -0.05120547807258973 0.07638708127941507
7465000000 -0.08392298857640022 0.08316594135820131 -0.8065361701438806 -0.4455142648942524 0.1053434221582901 -0.2025493727488134 -0.07591284172301424 0.1268725540776535
  -0.8065359096593936 -0.4455141348779372 -0.07902560725322096 0.08646137195106282 -0.07586512868993027 0.1277373570374322 0.1029700222417829 -0.2039479227952658
  0.1053322982277134 -0.2025293757261904 -0.07585744153810034 0.1277251137055498 -0.05003820378537875 0.07627873975309704 -0.8904961797645008 -0.2372906951029909
  -0.07591863542492669 0.1268819409415528 0.1029775865355896 -0.2039626209088658 -0.8906487034139426 -0.2373346099861562 -0.05102693300617039 0.07638817381565531
7470000000 -0.08376235598619454 0.08327542584315255 -0.8073208489885451 -0.4441144651126903 0.1049138384854643 -0.20257566137542 -0.07568591462918332 0.1271374656346799
  -0.8073205881042443 -0.4441143354718974 -0.07885638347839888 0.08656500217910847 -0.07563560702045101 0.128001989413401 0.102535599255143 -0.2039719376481548
  0.1049027568833646 -0.2025556611702194 -0.07562794181453589 0.1279897199589991 -0.04986404364506476 0.07627608840709875 -0.8909619424320094 -0.235589063817083
  -0.07569169191715887 0.1271468726357861 0.1025431315272688 -0.2039866384697693 -0.8911145520913506 -0.2356326870504281 -0.05084841308065974 0.07638873239637982
7475000000 -0.08360145957679806 0.0833844895716658 -0.808103208739368 -0.4427132272285563 0.1044842703933113 -0.2026007368345096 -0.0754581619081181 0.1274019268419494
  -0.8081029474556983 -0.4427130979642962 -0.07868690983754714 0.08666818920435568 -0.07540526334680896 0.1282661624983307 0.1021011922898568 -0.2039947274840001
  0.1044732311194538 -0.2025807335674277 -0.07539762016756658 0.1282538669656227 -0.0496899299402608 0.07627291315928833 -0.891424534266812 -0.2338864163268509
  -0.0754639227199126 0.1274113539489121 0.1021086925386866 -0.2040094309242496 -0.891577229392295 -0.2339297477201072 -0.05066992005203236 0.07638875701786911
7480000000 -0.08344030073136696 0.08349313153133572 -0.8088832463577478 -0.4413105545601042 0.1040547214843637 -0.2026245993557006 -0.07522958460181822 0.1276659350439143
  -0.8088829846751561 -0.4413104256733867 -0.07851718778351163 0.08677093206895964 -0.07517409877126004 0.1285298736756361 0.101666804978056 -0.2040162925220475
  0.1040437245381548 -0.2026045931474163 -0.07516647769934104 0.1285175521090946 -0.04951586440558567 0.07626921407060927 -0.8918839524293964 -0.2321827581722277
  -0.07523532887525594 0.1276753822251848 0.1016742732022405 -0.204030998491562 -0.892036732476724 -0.2322257975360356 -0.05049145567795361 0.07638824768299274
7485000000 -0.08327888083904954 0.08360135071454652 -0.8096609588060442 -0.4399064504337668 0.103625195359841 -0.2026472491802439 -0.07500018376155225 0.1279294875873893
  -0.8096606967249784 -0.439906321925603 -0.07834721877483614 0.08687322982012631 -0.07494211440516696 0.1287931203316146 0.1012324409506383 -0.2040366329932554
  0.1036142407403281 -0.2026272401514171 -0.07493451552111383 0.1287807727759694 -0.0493418487771649 0.07626499120841976 -0.8923401940868303 -0.230478094903804
  -0.07500591143452828 0.1279389548112221 0.101239877149095 -0.2040513414026765 -0.8924930585111674 -0.2305208420497118 -0.05031302171775406 0.07638720440123246
7490000000 -0.08311720129496918 0.08370914611851402 -0.8104363430476009 -0.438500918184188 0.1031956956196071 -0.2026686865610175 -0.07476996044785753 0.1281925818215861
  -0.8104360805685131 -0.4385007900555863 -0.07817700427574505 0.08697508151015262 -0.07470931136899271 0.1290558998554787 0.1007981038372272 -0.2040557491402903
  0.103184783325479 -0.2026486748322881 -0.07470173475323895 0.129043526355719 -0.04916788479260472 0.0762602446465136 -0.8927932564128082 -0.228772432082836
  -0.07477567145833731 0.128202069056038 0.1008055080091396 -0.2040704599002706 -0.8929462046687838 -0.2288148868233022 -0.05013461993239967 0.07638562718870369
7495000000 -0.08295526350020799 0.08381651674532783 -0.8112093960467732 -0.437093961154247 0.1027662258621294 -0.2026889117625207 -0.07453891573053818 0.1284552150981482
  -0.8112091331701144 -0.4370938334062178 -0.07800654575612516 0.0870764861964665 -0.07447569079229671 0.1293182096393935 0.1003637972661286 -0.204073641217521
  0.1027553558917161 -0.2026688974545071 -0.07446813652516557 0.1293058102407652 -0.04899397419096693 0.07625497446514222 -0.8932431365876958 -0.2270657752812681
  -0.07454461001655803 0.1284647223110784 0.1003711694109462 -0.2040883542387252 -0.8933961681294023 -0.2271079374296645 -0.04995625208446633 0.0763835160681782
7500000000 -0.08279306886179022 0.08392346160199336 -0.8119801147689476 -0.4356855826950919 0.1023367896844361 -0.2027079250608677 -0.07430705068866326 0.1287173847711839
  -0.8119798514951728 -0.4356854553286436 -0.07783584469150823 0.08717744294166684 -0.07424125381372836 0.1295800470785084 0.09992952486428922 -0.2040903094910129
  0.1023259620357092 -0.2026879082941655 -0.07423372197543208 0.1295676218265153 -0.04882011871274312 0.07624918075103568 -0.8936898317985766 -0.225358130081744
  -0.07431272818833147 0.1287269119302547 0.09993686498172751 -0.2041050246841195 -0.8938429460795683 -0.2253999994523576 -0.04977791993811242 0.0763808710691062
