! Generated by EMerge - 1-port S-parameters
! File generated: 2026-04-04 20:26 
# GHZ S RI R 50
5.300000e+00  3.086082e-01  7.764229e-01
5.301000e+00  3.138240e-01  7.743922e-01
5.302000e+00  3.190198e-01  7.723251e-01
5.303000e+00  3.241954e-01  7.702218e-01
5.304000e+00  3.293504e-01  7.680826e-01
5.305000e+00  3.344845e-01  7.659077e-01
5.306000e+00  3.395977e-01  7.636975e-01
5.307000e+00  3.446896e-01  7.614520e-01
5.308000e+00  3.497599e-01  7.591717e-01
5.309000e+00  3.548085e-01  7.568567e-01
5.310000e+00  3.598351e-01  7.545073e-01
5.311000e+00  3.648394e-01  7.521238e-01
5.312000e+00  3.698213e-01  7.497064e-01
5.313000e+00  3.747806e-01  7.472554e-01
5.314000e+00  3.797169e-01  7.447711e-01
5.315000e+00  3.846302e-01  7.422537e-01
5.316000e+00  3.895202e-01  7.397035e-01
5.317000e+00  3.943866e-01  7.371207e-01
5.318000e+00  3.992294e-01  7.345057e-01
5.319000e+00  4.040482e-01  7.318586e-01
5.320000e+00  4.088429e-01  7.291797e-01
5.321000e+00  4.136133e-01  7.264694e-01
5.322000e+00  4.183593e-01  7.237278e-01
5.323000e+00  4.230805e-01  7.209553e-01
5.324000e+00  4.277770e-01  7.181520e-01
5.325000e+00  4.324484e-01  7.153184e-01
5.326000e+00  4.370946e-01  7.124546e-01
5.327000e+00  4.417154e-01  7.095609e-01
5.328000e+00  4.463107e-01  7.066376e-01
5.329000e+00  4.508803e-01  7.036849e-01
5.330000e+00  4.554240e-01  7.007031e-01
5.331000e+00  4.599418e-01  6.976926e-01
5.332000e+00  4.644334e-01  6.946534e-01
5.333000e+00  4.688986e-01  6.915860e-01
5.334000e+00  4.733374e-01  6.884905e-01
5.335000e+00  4.777496e-01  6.853673e-01
5.336000e+00  4.821351e-01  6.822167e-01
5.337000e+00  4.864937e-01  6.790387e-01
5.338000e+00  4.908252e-01  6.758339e-01
5.339000e+00  4.951296e-01  6.726023e-01
5.340000e+00  4.994068e-01  6.693443e-01
5.341000e+00  5.036566e-01  6.660602e-01
5.342000e+00  5.078788e-01  6.627502e-01
5.343000e+00  5.120734e-01  6.594145e-01
5.344000e+00  5.162403e-01  6.560534e-01
5.345000e+00  5.203793e-01  6.526673e-01
5.346000e+00  5.244904e-01  6.492562e-01
5.347000e+00  5.285734e-01  6.458206e-01
5.348000e+00  5.326282e-01  6.423607e-01
5.349000e+00  5.366547e-01  6.388767e-01
5.350000e+00  5.406528e-01  6.353689e-01
5.351000e+00  5.446225e-01  6.318375e-01
5.352000e+00  5.485636e-01  6.282828e-01
5.353000e+00  5.524761e-01  6.247051e-01
5.354000e+00  5.563598e-01  6.211045e-01
5.355000e+00  5.602147e-01  6.174815e-01
5.356000e+00  5.640407e-01  6.138361e-01
5.357000e+00  5.678377e-01  6.101687e-01
5.358000e+00  5.716056e-01  6.064796e-01
5.359000e+00  5.753444e-01  6.027689e-01
5.360000e+00  5.790539e-01  5.990369e-01
5.361000e+00  5.827342e-01  5.952838e-01
5.362000e+00  5.863851e-01  5.915100e-01
5.363000e+00  5.900066e-01  5.877156e-01
5.364000e+00  5.935986e-01  5.839010e-01
5.365000e+00  5.971611e-01  5.800662e-01
5.366000e+00  6.006940e-01  5.762117e-01
5.367000e+00  6.041972e-01  5.723375e-01
5.368000e+00  6.076707e-01  5.684440e-01
5.369000e+00  6.111144e-01  5.645314e-01
5.370000e+00  6.145283e-01  5.606000e-01
5.371000e+00  6.179123e-01  5.566499e-01
5.372000e+00  6.212664e-01  5.526814e-01
5.373000e+00  6.245906e-01  5.486948e-01
5.374000e+00  6.278847e-01  5.446902e-01
5.375000e+00  6.311488e-01  5.406679e-01
5.376000e+00  6.343828e-01  5.366281e-01
5.377000e+00  6.375866e-01  5.325711e-01
5.378000e+00  6.407603e-01  5.284970e-01
5.379000e+00  6.439038e-01  5.244062e-01
5.380000e+00  6.470170e-01  5.202988e-01
5.381000e+00  6.501000e-01  5.161750e-01
5.382000e+00  6.531527e-01  5.120351e-01
5.383000e+00  6.561751e-01  5.078793e-01
5.384000e+00  6.591671e-01  5.037078e-01
5.385000e+00  6.621287e-01  4.995208e-01
5.386000e+00  6.650599e-01  4.953186e-01
5.387000e+00  6.679606e-01  4.911013e-01
5.388000e+00  6.708309e-01  4.868691e-01
5.389000e+00  6.736708e-01  4.826224e-01
5.390000e+00  6.764801e-01  4.783612e-01
5.391000e+00  6.792590e-01  4.740858e-01
5.392000e+00  6.820073e-01  4.697964e-01
5.393000e+00  6.847250e-01  4.654932e-01
5.394000e+00  6.874122e-01  4.611765e-01
5.395000e+00  6.900688e-01  4.568463e-01
5.396000e+00  6.926948e-01  4.525030e-01
5.397000e+00  6.952903e-01  4.481466e-01
5.398000e+00  6.978551e-01  4.437775e-01
5.399000e+00  7.003892e-01  4.393958e-01
5.400000e+00  7.028928e-01  4.350017e-01
5.401000e+00  7.053657e-01  4.305953e-01
5.402000e+00  7.078079e-01  4.261770e-01
5.403000e+00  7.102195e-01  4.217469e-01
5.404000e+00  7.126005e-01  4.173051e-01
5.405000e+00  7.149507e-01  4.128519e-01
5.406000e+00  7.172703e-01  4.083874e-01
5.407000e+00  7.195592e-01  4.039119e-01
5.408000e+00  7.218175e-01  3.994255e-01
5.409000e+00  7.240450e-01  3.949284e-01
5.410000e+00  7.262419e-01  3.904208e-01
5.411000e+00  7.284081e-01  3.859028e-01
5.412000e+00  7.305436e-01  3.813747e-01
5.413000e+00  7.326484e-01  3.768366e-01
5.414000e+00  7.347225e-01  3.722887e-01
5.415000e+00  7.367659e-01  3.677313e-01
5.416000e+00  7.387787e-01  3.631643e-01
5.417000e+00  7.407607e-01  3.585881e-01
5.418000e+00  7.427121e-01  3.540028e-01
5.419000e+00  7.446328e-01  3.494085e-01
5.420000e+00  7.465228e-01  3.448055e-01
5.421000e+00  7.483821e-01  3.401939e-01
5.422000e+00  7.502107e-01  3.355739e-01
5.423000e+00  7.520087e-01  3.309456e-01
5.424000e+00  7.537760e-01  3.263092e-01
5.425000e+00  7.555127e-01  3.216649e-01
5.426000e+00  7.572186e-01  3.170128e-01
5.427000e+00  7.588939e-01  3.123532e-01
5.428000e+00  7.605386e-01  3.076860e-01
5.429000e+00  7.621526e-01  3.030116e-01
5.430000e+00  7.637360e-01  2.983301e-01
5.431000e+00  7.652887e-01  2.936416e-01
5.432000e+00  7.668107e-01  2.889463e-01
5.433000e+00  7.683022e-01  2.842443e-01
5.434000e+00  7.697630e-01  2.795359e-01
5.435000e+00  7.711931e-01  2.748210e-01
5.436000e+00  7.725927e-01  2.701000e-01
5.437000e+00  7.739616e-01  2.653730e-01
5.438000e+00  7.752999e-01  2.606400e-01
5.439000e+00  7.766076e-01  2.559013e-01
5.440000e+00  7.778846e-01  2.511570e-01
5.441000e+00  7.791311e-01  2.464073e-01
5.442000e+00  7.803469e-01  2.416522e-01
5.443000e+00  7.815322e-01  2.368920e-01
5.444000e+00  7.826868e-01  2.321268e-01
5.445000e+00  7.838109e-01  2.273567e-01
5.446000e+00  7.849043e-01  2.225819e-01
5.447000e+00  7.859671e-01  2.178026e-01
5.448000e+00  7.869994e-01  2.130187e-01
5.449000e+00  7.880010e-01  2.082306e-01
5.450000e+00  7.889720e-01  2.034384e-01
5.451000e+00  7.899125e-01  1.986421e-01
5.452000e+00  7.908223e-01  1.938420e-01
5.453000e+00  7.917016e-01  1.890381e-01
5.454000e+00  7.925502e-01  1.842306e-01
5.455000e+00  7.933683e-01  1.794197e-01
5.456000e+00  7.941557e-01  1.746054e-01
5.457000e+00  7.949126e-01  1.697880e-01
5.458000e+00  7.956388e-01  1.649675e-01
5.459000e+00  7.963344e-01  1.601441e-01
5.460000e+00  7.969994e-01  1.553179e-01
5.461000e+00  7.976338e-01  1.504891e-01
5.462000e+00  7.982375e-01  1.456578e-01
5.463000e+00  7.988106e-01  1.408241e-01
5.464000e+00  7.993531e-01  1.359881e-01
5.465000e+00  7.998649e-01  1.311501e-01
5.466000e+00  8.003461e-01  1.263101e-01
5.467000e+00  8.007966e-01  1.214682e-01
5.468000e+00  8.012164e-01  1.166246e-01
5.469000e+00  8.016055e-01  1.117794e-01
5.470000e+00  8.019640e-01  1.069328e-01
5.471000e+00  8.022917e-01  1.020849e-01
5.472000e+00  8.025888e-01  9.723579e-02
5.473000e+00  8.028551e-01  9.238562e-02
5.474000e+00  8.030906e-01  8.753453e-02
5.475000e+00  8.032954e-01  8.268265e-02
5.476000e+00  8.034695e-01  7.783011e-02
5.477000e+00  8.036127e-01  7.297703e-02
5.478000e+00  8.037252e-01  6.812356e-02
5.479000e+00  8.038069e-01  6.326982e-02
5.480000e+00  8.038577e-01  5.841594e-02
5.481000e+00  8.038776e-01  5.356205e-02
5.482000e+00  8.038667e-01  4.870828e-02
5.483000e+00  8.038249e-01  4.385477e-02
5.484000e+00  8.037522e-01  3.900165e-02
5.485000e+00  8.036486e-01  3.414904e-02
5.486000e+00  8.035140e-01  2.929708e-02
5.487000e+00  8.033484e-01  2.444590e-02
5.488000e+00  8.031518e-01  1.959563e-02
5.489000e+00  8.029242e-01  1.474640e-02
5.490000e+00  8.026656e-01  9.898353e-03
5.491000e+00  8.023758e-01  5.051615e-03
5.492000e+00  8.020550e-01  2.063192e-04
5.493000e+00  8.017030e-01  -4.637399e-03
5.494000e+00  8.013199e-01  -9.479407e-03
5.495000e+00  8.009056e-01  -1.431957e-02
5.496000e+00  8.004601e-01  -1.915775e-02
5.497000e+00  7.999833e-01  -2.399381e-02
5.498000e+00  7.994752e-01  -2.882763e-02
5.499000e+00  7.989358e-01  -3.365905e-02
5.500000e+00  7.983651e-01  -3.848794e-02
5.501000e+00  7.977629e-01  -4.331417e-02
5.502000e+00  7.971294e-01  -4.813760e-02
5.503000e+00  7.964644e-01  -5.295808e-02
5.504000e+00  7.957679e-01  -5.777548e-02
5.505000e+00  7.950398e-01  -6.258965e-02
5.506000e+00  7.942802e-01  -6.740046e-02
5.507000e+00  7.934890e-01  -7.220776e-02
5.508000e+00  7.926661e-01  -7.701140e-02
5.509000e+00  7.918115e-01  -8.181124e-02
5.510000e+00  7.909252e-01  -8.660714e-02
5.511000e+00  7.900071e-01  -9.139895e-02
5.512000e+00  7.890572e-01  -9.618652e-02
5.513000e+00  7.880754e-01  -1.009697e-01
5.514000e+00  7.870617e-01  -1.057483e-01
5.515000e+00  7.860160e-01  -1.105223e-01
5.516000e+00  7.849383e-01  -1.152914e-01
5.517000e+00  7.838285e-01  -1.200555e-01
5.518000e+00  7.826866e-01  -1.248145e-01
5.519000e+00  7.815126e-01  -1.295682e-01
5.520000e+00  7.803063e-01  -1.343164e-01
5.521000e+00  7.790678e-01  -1.390589e-01
5.522000e+00  7.777969e-01  -1.437957e-01
5.523000e+00  7.764937e-01  -1.485266e-01
5.524000e+00  7.751581e-01  -1.532513e-01
5.525000e+00  7.737899e-01  -1.579698e-01
5.526000e+00  7.723893e-01  -1.626818e-01
5.527000e+00  7.709560e-01  -1.673873e-01
5.528000e+00  7.694900e-01  -1.720859e-01
5.529000e+00  7.679914e-01  -1.767776e-01
5.530000e+00  7.664600e-01  -1.814622e-01
5.531000e+00  7.648957e-01  -1.861394e-01
5.532000e+00  7.632986e-01  -1.908093e-01
5.533000e+00  7.616685e-01  -1.954714e-01
5.534000e+00  7.600053e-01  -2.001257e-01
5.535000e+00  7.583091e-01  -2.047720e-01
5.536000e+00  7.565798e-01  -2.094101e-01
5.537000e+00  7.548172e-01  -2.140398e-01
5.538000e+00  7.530214e-01  -2.186610e-01
5.539000e+00  7.511922e-01  -2.232733e-01
5.540000e+00  7.493296e-01  -2.278767e-01
5.541000e+00  7.474335e-01  -2.324710e-01
5.542000e+00  7.455039e-01  -2.370558e-01
5.543000e+00  7.435407e-01  -2.416312e-01
5.544000e+00  7.415438e-01  -2.461967e-01
5.545000e+00  7.395132e-01  -2.507523e-01
5.546000e+00  7.374487e-01  -2.552978e-01
5.547000e+00  7.353504e-01  -2.598328e-01
5.548000e+00  7.332181e-01  -2.643573e-01
5.549000e+00  7.310518e-01  -2.688709e-01
5.550000e+00  7.288514e-01  -2.733735e-01
5.551000e+00  7.266168e-01  -2.778648e-01
5.552000e+00  7.243479e-01  -2.823447e-01
5.553000e+00  7.220448e-01  -2.868129e-01
5.554000e+00  7.197073e-01  -2.912691e-01
5.555000e+00  7.173353e-01  -2.957132e-01
5.556000e+00  7.149288e-01  -3.001449e-01
5.557000e+00  7.124877e-01  -3.045639e-01
5.558000e+00  7.100119e-01  -3.089700e-01
5.559000e+00  7.075013e-01  -3.133631e-01
5.560000e+00  7.049560e-01  -3.177427e-01
5.561000e+00  7.023757e-01  -3.221087e-01
5.562000e+00  6.997605e-01  -3.264608e-01
5.563000e+00  6.971102e-01  -3.307988e-01
5.564000e+00  6.944248e-01  -3.351224e-01
5.565000e+00  6.917042e-01  -3.394313e-01
5.566000e+00  6.889484e-01  -3.437252e-01
5.567000e+00  6.861572e-01  -3.480040e-01
5.568000e+00  6.833307e-01  -3.522672e-01
5.569000e+00  6.804686e-01  -3.565147e-01
5.570000e+00  6.775710e-01  -3.607461e-01
5.571000e+00  6.746378e-01  -3.649612e-01
5.572000e+00  6.716689e-01  -3.691597e-01
5.573000e+00  6.686643e-01  -3.733412e-01
5.574000e+00  6.656238e-01  -3.775054e-01
5.575000e+00  6.625474e-01  -3.816522e-01
5.576000e+00  6.594351e-01  -3.857810e-01
5.577000e+00  6.562867e-01  -3.898918e-01
5.578000e+00  6.531022e-01  -3.939840e-01
5.579000e+00  6.498816e-01  -3.980574e-01
5.580000e+00  6.466248e-01  -4.021117e-01
5.581000e+00  6.433316e-01  -4.061466e-01
5.582000e+00  6.400021e-01  -4.101616e-01
5.583000e+00  6.366362e-01  -4.141565e-01
5.584000e+00  6.332339e-01  -4.181310e-01
5.585000e+00  6.297950e-01  -4.220846e-01
5.586000e+00  6.263195e-01  -4.260170e-01
5.587000e+00  6.228074e-01  -4.299279e-01
5.588000e+00  6.192586e-01  -4.338168e-01
5.589000e+00  6.156731e-01  -4.376835e-01
5.590000e+00  6.120508e-01  -4.415275e-01
5.591000e+00  6.083916e-01  -4.453485e-01
5.592000e+00  6.046955e-01  -4.491461e-01
5.593000e+00  6.009626e-01  -4.529198e-01
5.594000e+00  5.971926e-01  -4.566694e-01
5.595000e+00  5.933857e-01  -4.603943e-01
5.596000e+00  5.895417e-01  -4.640942e-01
5.597000e+00  5.856606e-01  -4.677687e-01
5.598000e+00  5.817425e-01  -4.714173e-01
5.599000e+00  5.777872e-01  -4.750397e-01
5.600000e+00  5.737947e-01  -4.786354e-01
5.601000e+00  5.697651e-01  -4.822039e-01
5.602000e+00  5.656982e-01  -4.857449e-01
5.603000e+00  5.615942e-01  -4.892578e-01
5.604000e+00  5.574529e-01  -4.927422e-01
5.605000e+00  5.532743e-01  -4.961977e-01
5.606000e+00  5.490586e-01  -4.996238e-01
5.607000e+00  5.448056e-01  -5.030201e-01
5.608000e+00  5.405153e-01  -5.063859e-01
5.609000e+00  5.361878e-01  -5.097210e-01
5.610000e+00  5.318231e-01  -5.130247e-01
5.611000e+00  5.274212e-01  -5.162965e-01
5.612000e+00  5.229821e-01  -5.195361e-01
5.613000e+00  5.185059e-01  -5.227428e-01
5.614000e+00  5.139925e-01  -5.259161e-01
5.615000e+00  5.094420e-01  -5.290556e-01
5.616000e+00  5.048545e-01  -5.321607e-01
5.617000e+00  5.002299e-01  -5.352308e-01
5.618000e+00  4.955684e-01  -5.382654e-01
5.619000e+00  4.908700e-01  -5.412640e-01
5.620000e+00  4.861348e-01  -5.442260e-01
5.621000e+00  4.813628e-01  -5.471508e-01
5.622000e+00  4.765542e-01  -5.500379e-01
5.623000e+00  4.717089e-01  -5.528867e-01
5.624000e+00  4.668271e-01  -5.556965e-01
5.625000e+00  4.619089e-01  -5.584669e-01
5.626000e+00  4.569544e-01  -5.611973e-01
5.627000e+00  4.519636e-01  -5.638869e-01
5.628000e+00  4.469368e-01  -5.665352e-01
5.629000e+00  4.418741e-01  -5.691417e-01
5.630000e+00  4.367755e-01  -5.717055e-01
5.631000e+00  4.316413e-01  -5.742262e-01
5.632000e+00  4.264716e-01  -5.767031e-01
5.633000e+00  4.212665e-01  -5.791355e-01
5.634000e+00  4.160262e-01  -5.815228e-01
5.635000e+00  4.107509e-01  -5.838643e-01
5.636000e+00  4.054409e-01  -5.861593e-01
5.637000e+00  4.000962e-01  -5.884072e-01
5.638000e+00  3.947171e-01  -5.906073e-01
5.639000e+00  3.893039e-01  -5.927589e-01
5.640000e+00  3.838567e-01  -5.948614e-01
5.641000e+00  3.783759e-01  -5.969139e-01
5.642000e+00  3.728616e-01  -5.989158e-01
5.643000e+00  3.673141e-01  -6.008664e-01
5.644000e+00  3.617338e-01  -6.027649e-01
5.645000e+00  3.561209e-01  -6.046107e-01
5.646000e+00  3.504757e-01  -6.064030e-01
5.647000e+00  3.447985e-01  -6.081410e-01
5.648000e+00  3.390898e-01  -6.098240e-01
5.649000e+00  3.333497e-01  -6.114513e-01
5.650000e+00  3.275787e-01  -6.130220e-01
5.651000e+00  3.217772e-01  -6.145355e-01
5.652000e+00  3.159456e-01  -6.159909e-01
5.653000e+00  3.100842e-01  -6.173874e-01
5.654000e+00  3.041934e-01  -6.187244e-01
5.655000e+00  2.982738e-01  -6.200010e-01
5.656000e+00  2.923258e-01  -6.212163e-01
5.657000e+00  2.863499e-01  -6.223697e-01
5.658000e+00  2.803464e-01  -6.234602e-01
5.659000e+00  2.743160e-01  -6.244872e-01
5.660000e+00  2.682592e-01  -6.254497e-01
5.661000e+00  2.621765e-01  -6.263470e-01
5.662000e+00  2.560685e-01  -6.271783e-01
5.663000e+00  2.499357e-01  -6.279426e-01
5.664000e+00  2.437788e-01  -6.286393e-01
5.665000e+00  2.375983e-01  -6.292674e-01
5.666000e+00  2.313950e-01  -6.298261e-01
5.667000e+00  2.251695e-01  -6.303147e-01
5.668000e+00  2.189224e-01  -6.307322e-01
5.669000e+00  2.126546e-01  -6.310778e-01
5.670000e+00  2.063666e-01  -6.313507e-01
5.671000e+00  2.000593e-01  -6.315500e-01
5.672000e+00  1.937334e-01  -6.316749e-01
5.673000e+00  1.873897e-01  -6.317246e-01
5.674000e+00  1.810291e-01  -6.316982e-01
5.675000e+00  1.746524e-01  -6.315948e-01
5.676000e+00  1.682604e-01  -6.314137e-01
5.677000e+00  1.618542e-01  -6.311540e-01
5.678000e+00  1.554345e-01  -6.308149e-01
5.679000e+00  1.490023e-01  -6.303954e-01
5.680000e+00  1.425586e-01  -6.298949e-01
5.681000e+00  1.361045e-01  -6.293124e-01
5.682000e+00  1.296408e-01  -6.286472e-01
5.683000e+00  1.231688e-01  -6.278984e-01
5.684000e+00  1.166895e-01  -6.270653e-01
5.685000e+00  1.102039e-01  -6.261469e-01
5.686000e+00  1.037133e-01  -6.251426e-01
5.687000e+00  9.721872e-02  -6.240516e-01
5.688000e+00  9.072148e-02  -6.228730e-01
5.689000e+00  8.422277e-02  -6.216061e-01
5.690000e+00  7.772386e-02  -6.202501e-01
5.691000e+00  7.122602e-02  -6.188043e-01
5.692000e+00  6.473060e-02  -6.172680e-01
5.693000e+00  5.823893e-02  -6.156403e-01
5.694000e+00  5.175240e-02  -6.139207e-01
5.695000e+00  4.527243e-02  -6.121085e-01
5.696000e+00  3.880047e-02  -6.102028e-01
5.697000e+00  3.233800e-02  -6.082031e-01
5.698000e+00  2.588654e-02  -6.061088e-01
5.699000e+00  1.944762e-02  -6.039192e-01
5.700000e+00  1.302284e-02  -6.016337e-01
5.701000e+00  6.613793e-03  -5.992517e-01
5.702000e+00  2.221350e-04  -5.967726e-01
5.703000e+00  -6.150457e-03  -5.941960e-01
5.704000e+00  -1.250227e-02  -5.915212e-01
5.705000e+00  -1.883156e-02  -5.887478e-01
5.706000e+00  -2.513656e-02  -5.858754e-01
5.707000e+00  -3.141544e-02  -5.829035e-01
5.708000e+00  -3.766636e-02  -5.798317e-01
5.709000e+00  -4.388744e-02  -5.766596e-01
5.710000e+00  -5.007678e-02  -5.733869e-01
5.711000e+00  -5.623243e-02  -5.700132e-01
5.712000e+00  -6.235241e-02  -5.665383e-01
5.713000e+00  -6.843472e-02  -5.629619e-01
5.714000e+00  -7.447732e-02  -5.592839e-01
5.715000e+00  -8.047812e-02  -5.555041e-01
5.716000e+00  -8.643503e-02  -5.516223e-01
5.717000e+00  -9.234592e-02  -5.476384e-01
5.718000e+00  -9.820863e-02  -5.435525e-01
5.719000e+00  -1.040209e-01  -5.393645e-01
5.720000e+00  -1.097807e-01  -5.350745e-01
5.721000e+00  -1.154855e-01  -5.306826e-01
5.722000e+00  -1.211332e-01  -5.261888e-01
5.723000e+00  -1.267215e-01  -5.215935e-01
5.724000e+00  -1.322481e-01  -5.168969e-01
5.725000e+00  -1.377104e-01  -5.120992e-01
5.726000e+00  -1.431063e-01  -5.072009e-01
5.727000e+00  -1.484333e-01  -5.022023e-01
5.728000e+00  -1.536890e-01  -4.971039e-01
5.729000e+00  -1.588708e-01  -4.919063e-01
5.730000e+00  -1.639765e-01  -4.866101e-01
5.731000e+00  -1.690034e-01  -4.812159e-01
5.732000e+00  -1.739490e-01  -4.757244e-01
5.733000e+00  -1.788110e-01  -4.701364e-01
5.734000e+00  -1.835867e-01  -4.644528e-01
5.735000e+00  -1.882736e-01  -4.586745e-01
5.736000e+00  -1.928691e-01  -4.528026e-01
5.737000e+00  -1.973708e-01  -4.468380e-01
5.738000e+00  -2.017759e-01  -4.407819e-01
5.739000e+00  -2.060821e-01  -4.346356e-01
5.740000e+00  -2.102866e-01  -4.284003e-01
5.741000e+00  -2.143870e-01  -4.220774e-01
5.742000e+00  -2.183807e-01  -4.156684e-01
5.743000e+00  -2.222650e-01  -4.091747e-01
5.744000e+00  -2.260375e-01  -4.025980e-01
5.745000e+00  -2.296956e-01  -3.959399e-01
5.746000e+00  -2.332368e-01  -3.892023e-01
5.747000e+00  -2.366586e-01  -3.823870e-01
5.748000e+00  -2.399583e-01  -3.754959e-01
5.749000e+00  -2.431337e-01  -3.685310e-01
5.750000e+00  -2.461822e-01  -3.614945e-01
5.751000e+00  -2.491013e-01  -3.543886e-01
5.752000e+00  -2.518887e-01  -3.472154e-01
5.753000e+00  -2.545420e-01  -3.399775e-01
5.754000e+00  -2.570589e-01  -3.326771e-01
5.755000e+00  -2.594370e-01  -3.253170e-01
5.756000e+00  -2.616741e-01  -3.178996e-01
5.757000e+00  -2.637680e-01  -3.104277e-01
5.758000e+00  -2.657166e-01  -3.029042e-01
5.759000e+00  -2.675176e-01  -2.953318e-01
5.760000e+00  -2.691691e-01  -2.877135e-01
5.761000e+00  -2.706690e-01  -2.800525e-01
5.762000e+00  -2.720154e-01  -2.723517e-01
5.763000e+00  -2.732064e-01  -2.646146e-01
5.764000e+00  -2.742402e-01  -2.568442e-01
5.765000e+00  -2.751151e-01  -2.490442e-01
5.766000e+00  -2.758294e-01  -2.412177e-01
5.767000e+00  -2.763815e-01  -2.333686e-01
5.768000e+00  -2.767699e-01  -2.255002e-01
5.769000e+00  -2.769932e-01  -2.176164e-01
5.770000e+00  -2.770500e-01  -2.097209e-01
5.771000e+00  -2.769392e-01  -2.018174e-01
5.772000e+00  -2.766595e-01  -1.939100e-01
5.773000e+00  -2.762100e-01  -1.860026e-01
5.774000e+00  -2.755897e-01  -1.780992e-01
5.775000e+00  -2.747977e-01  -1.702039e-01
5.776000e+00  -2.738333e-01  -1.623208e-01
5.777000e+00  -2.726960e-01  -1.544541e-01
5.778000e+00  -2.713851e-01  -1.466081e-01
5.779000e+00  -2.699003e-01  -1.387871e-01
5.780000e+00  -2.682414e-01  -1.309953e-01
5.781000e+00  -2.664081e-01  -1.232373e-01
5.782000e+00  -2.644006e-01  -1.155174e-01
5.783000e+00  -2.622187e-01  -1.078400e-01
5.784000e+00  -2.598629e-01  -1.002097e-01
5.785000e+00  -2.573335e-01  -9.263083e-02
5.786000e+00  -2.546309e-01  -8.510806e-02
5.787000e+00  -2.517558e-01  -7.764586e-02
5.788000e+00  -2.487089e-01  -7.024879e-02
5.789000e+00  -2.454912e-01  -6.292140e-02
5.790000e+00  -2.421037e-01  -5.566825e-02
5.791000e+00  -2.385475e-01  -4.849387e-02
5.792000e+00  -2.348241e-01  -4.140282e-02
5.793000e+00  -2.309348e-01  -3.439962e-02
5.794000e+00  -2.268812e-01  -2.748878e-02
5.795000e+00  -2.226652e-01  -2.067479e-02
5.796000e+00  -2.182885e-01  -1.396211e-02
5.797000e+00  -2.137533e-01  -7.355151e-03
5.798000e+00  -2.090617e-01  -8.583103e-04
5.799000e+00  -2.042159e-01  5.524074e-03
5.800000e+00  -1.992185e-01  1.178771e-02
5.801000e+00  -1.940720e-01  1.792836e-02
5.802000e+00  -1.887791e-01  2.394185e-02
5.803000e+00  -1.833427e-01  2.982406e-02
5.804000e+00  -1.777659e-01  3.557094e-02
5.805000e+00  -1.720516e-01  4.117854e-02
5.806000e+00  -1.662032e-01  4.664295e-02
5.807000e+00  -1.602240e-01  5.196037e-02
5.808000e+00  -1.541176e-01  5.712709e-02
5.809000e+00  -1.478875e-01  6.213948e-02
5.810000e+00  -1.415375e-01  6.699402e-02
5.811000e+00  -1.350715e-01  7.168728e-02
5.812000e+00  -1.284934e-01  7.621594e-02
5.813000e+00  -1.218073e-01  8.057682e-02
5.814000e+00  -1.150174e-01  8.476680e-02
5.815000e+00  -1.081280e-01  8.878293e-02
5.816000e+00  -1.011434e-01  9.262236e-02
5.817000e+00  -9.406810e-02  9.628236e-02
5.818000e+00  -8.690667e-02  9.976034e-02
5.819000e+00  -7.966374e-02  1.030538e-01
5.820000e+00  -7.234403e-02  1.061605e-01
5.821000e+00  -6.495233e-02  1.090782e-01
5.822000e+00  -5.749351e-02  1.118049e-01
5.823000e+00  -4.997247e-02  1.143386e-01
5.824000e+00  -4.239421e-02  1.166776e-01
5.825000e+00  -3.476376e-02  1.188203e-01
5.826000e+00  -2.708621e-02  1.207652e-01
5.827000e+00  -1.936668e-02  1.225110e-01
5.828000e+00  -1.161033e-02  1.240566e-01
5.829000e+00  -3.822374e-03  1.254009e-01
5.830000e+00  3.991977e-03  1.265431e-01
5.831000e+00  1.182747e-02  1.274824e-01
5.832000e+00  1.967885e-02  1.282184e-01
5.833000e+00  2.754084e-02  1.287506e-01
5.834000e+00  3.540815e-02  1.290788e-01
5.835000e+00  4.327551e-02  1.292028e-01
5.836000e+00  5.113764e-02  1.291228e-01
5.837000e+00  5.898928e-02  1.288390e-01
5.838000e+00  6.682516e-02  1.283517e-01
5.839000e+00  7.464007e-02  1.276615e-01
5.840000e+00  8.242878e-02  1.267690e-01
5.841000e+00  9.018613e-02  1.256750e-01
5.842000e+00  9.790697e-02  1.243805e-01
5.843000e+00  1.055862e-01  1.228866e-01
5.844000e+00  1.132187e-01  1.211946e-01
5.845000e+00  1.207996e-01  1.193057e-01
5.846000e+00  1.283238e-01  1.172216e-01
5.847000e+00  1.357864e-01  1.149438e-01
5.848000e+00  1.431827e-01  1.124743e-01
5.849000e+00  1.505077e-01  1.098148e-01
5.850000e+00  1.577569e-01  1.069674e-01
5.851000e+00  1.649255e-01  1.039344e-01
5.852000e+00  1.720089e-01  1.007179e-01
5.853000e+00  1.790028e-01  9.732037e-02
5.854000e+00  1.859027e-01  9.374434e-02
5.855000e+00  1.927042e-01  8.999243e-02
5.856000e+00  1.994031e-01  8.606737e-02
5.857000e+00  2.059953e-01  8.197199e-02
5.858000e+00  2.124767e-01  7.770923e-02
5.859000e+00  2.188434e-01  7.328212e-02
5.860000e+00  2.250914e-01  6.869378e-02
5.861000e+00  2.312171e-01  6.394744e-02
5.862000e+00  2.372166e-01  5.904638e-02
5.863000e+00  2.430866e-01  5.399399e-02
5.864000e+00  2.488234e-01  4.879374e-02
5.865000e+00  2.544238e-01  4.344914e-02
5.866000e+00  2.598845e-01  3.796381e-02
5.867000e+00  2.652023e-01  3.234142e-02
5.868000e+00  2.703742e-01  2.658571e-02
5.869000e+00  2.753973e-01  2.070047e-02
5.870000e+00  2.802687e-01  1.468954e-02
5.871000e+00  2.849857e-01  8.556839e-03
5.872000e+00  2.895457e-01  2.306316e-03
5.873000e+00  2.939463e-01  -4.058031e-03
5.874000e+00  2.981850e-01  -1.053216e-02
5.875000e+00  3.022596e-01  -1.711199e-02
5.876000e+00  3.061679e-01  -2.379341e-02
5.877000e+00  3.099078e-01  -3.057227e-02
5.878000e+00  3.134775e-01  -3.744438e-02
5.879000e+00  3.168750e-01  -4.440555e-02
5.880000e+00  3.200987e-01  -5.145156e-02
5.881000e+00  3.231469e-01  -5.857814e-02
5.882000e+00  3.260182e-01  -6.578105e-02
5.883000e+00  3.287111e-01  -7.305600e-02
5.884000e+00  3.312243e-01  -8.039870e-02
5.885000e+00  3.335567e-01  -8.780486e-02
5.886000e+00  3.357072e-01  -9.527017e-02
5.887000e+00  3.376748e-01  -1.027903e-01
5.888000e+00  3.394586e-01  -1.103610e-01
5.889000e+00  3.410578e-01  -1.179779e-01
5.890000e+00  3.424718e-01  -1.256367e-01
5.891000e+00  3.437000e-01  -1.333332e-01
5.892000e+00  3.447419e-01  -1.410630e-01
5.893000e+00  3.455972e-01  -1.488218e-01
5.894000e+00  3.462655e-01  -1.566054e-01
5.895000e+00  3.467467e-01  -1.644095e-01
5.896000e+00  3.470407e-01  -1.722300e-01
5.897000e+00  3.471474e-01  -1.800625e-01
5.898000e+00  3.470671e-01  -1.879029e-01
5.899000e+00  3.467998e-01  -1.957469e-01
5.900000e+00  3.463458e-01  -2.035905e-01
5.901000e+00  3.457055e-01  -2.114295e-01
5.902000e+00  3.448793e-01  -2.192598e-01
5.903000e+00  3.438677e-01  -2.270773e-01
5.904000e+00  3.426714e-01  -2.348779e-01
5.905000e+00  3.412910e-01  -2.426577e-01
5.906000e+00  3.397273e-01  -2.504126e-01
5.907000e+00  3.379812e-01  -2.581388e-01
5.908000e+00  3.360535e-01  -2.658321e-01
5.909000e+00  3.339453e-01  -2.734889e-01
5.910000e+00  3.316577e-01  -2.811052e-01
5.911000e+00  3.291918e-01  -2.886772e-01
5.912000e+00  3.265488e-01  -2.962011e-01
5.913000e+00  3.237301e-01  -3.036732e-01
5.914000e+00  3.207369e-01  -3.110897e-01
5.915000e+00  3.175708e-01  -3.184471e-01
5.916000e+00  3.142332e-01  -3.257416e-01
5.917000e+00  3.107257e-01  -3.329698e-01
5.918000e+00  3.070499e-01  -3.401281e-01
5.919000e+00  3.032076e-01  -3.472129e-01
5.920000e+00  2.992004e-01  -3.542209e-01
5.921000e+00  2.950302e-01  -3.611486e-01
5.922000e+00  2.906990e-01  -3.679927e-01
5.923000e+00  2.862085e-01  -3.747498e-01
5.924000e+00  2.815609e-01  -3.814168e-01
5.925000e+00  2.767582e-01  -3.879903e-01
5.926000e+00  2.718025e-01  -3.944672e-01
5.927000e+00  2.666960e-01  -4.008444e-01
5.928000e+00  2.614408e-01  -4.071188e-01
5.929000e+00  2.560394e-01  -4.132874e-01
5.930000e+00  2.504940e-01  -4.193472e-01
5.931000e+00  2.448070e-01  -4.252953e-01
5.932000e+00  2.389808e-01  -4.311288e-01
5.933000e+00  2.330179e-01  -4.368449e-01
5.934000e+00  2.269209e-01  -4.424408e-01
5.935000e+00  2.206923e-01  -4.479139e-01
5.936000e+00  2.143348e-01  -4.532614e-01
5.937000e+00  2.078510e-01  -4.584808e-01
5.938000e+00  2.012436e-01  -4.635695e-01
5.939000e+00  1.945155e-01  -4.685250e-01
5.940000e+00  1.876694e-01  -4.733449e-01
5.941000e+00  1.807081e-01  -4.780268e-01
5.942000e+00  1.736346e-01  -4.825683e-01
5.943000e+00  1.664519e-01  -4.869672e-01
5.944000e+00  1.591628e-01  -4.912213e-01
5.945000e+00  1.517703e-01  -4.953284e-01
5.946000e+00  1.442776e-01  -4.992865e-01
5.947000e+00  1.366878e-01  -5.030934e-01
5.948000e+00  1.290038e-01  -5.067472e-01
5.949000e+00  1.212290e-01  -5.102461e-01
5.950000e+00  1.133665e-01  -5.135881e-01
5.951000e+00  1.054195e-01  -5.167714e-01
5.952000e+00  9.739128e-02  -5.197944e-01
5.953000e+00  8.928515e-02  -5.226554e-01
5.954000e+00  8.110442e-02  -5.253527e-01
5.955000e+00  7.285245e-02  -5.278848e-01
5.956000e+00  6.453263e-02  -5.302503e-01
5.957000e+00  5.614836e-02  -5.324477e-01
5.958000e+00  4.770308e-02  -5.344757e-01
5.959000e+00  3.920026e-02  -5.363330e-01
5.960000e+00  3.064339e-02  -5.380184e-01
5.961000e+00  2.203599e-02  -5.395308e-01
5.962000e+00  1.338158e-02  -5.408691e-01
5.963000e+00  4.683734e-03  -5.420322e-01
5.964000e+00  -4.053976e-03  -5.430193e-01
5.965000e+00  -1.282795e-02  -5.438295e-01
5.966000e+00  -2.163457e-02  -5.444620e-01
5.967000e+00  -3.047020e-02  -5.449161e-01
5.968000e+00  -3.933118e-02  -5.451910e-01
5.969000e+00  -4.821387e-02  -5.452863e-01
5.970000e+00  -5.711456e-02  -5.452014e-01
5.971000e+00  -6.602958e-02  -5.449358e-01
5.972000e+00  -7.495522e-02  -5.444893e-01
5.973000e+00  -8.388777e-02  -5.438615e-01
5.974000e+00  -9.282350e-02  -5.430522e-01
5.975000e+00  -1.017587e-01  -5.420613e-01
5.976000e+00  -1.106896e-01  -5.408887e-01
5.977000e+00  -1.196125e-01  -5.395344e-01
5.978000e+00  -1.285237e-01  -5.379985e-01
5.979000e+00  -1.374194e-01  -5.362812e-01
5.980000e+00  -1.462958e-01  -5.343826e-01
5.981000e+00  -1.551493e-01  -5.323032e-01
5.982000e+00  -1.639761e-01  -5.300433e-01
5.983000e+00  -1.727724e-01  -5.276033e-01
5.984000e+00  -1.815346e-01  -5.249839e-01
5.985000e+00  -1.902590e-01  -5.221856e-01
5.986000e+00  -1.989417e-01  -5.192092e-01
5.987000e+00  -2.075792e-01  -5.160554e-01
5.988000e+00  -2.161677e-01  -5.127250e-01
5.989000e+00  -2.247036e-01  -5.092191e-01
5.990000e+00  -2.331833e-01  -5.055386e-01
5.991000e+00  -2.416031e-01  -5.016846e-01
5.992000e+00  -2.499594e-01  -4.976583e-01
5.993000e+00  -2.582486e-01  -4.934609e-01
5.994000e+00  -2.664671e-01  -4.890938e-01
5.995000e+00  -2.746115e-01  -4.845583e-01
5.996000e+00  -2.826781e-01  -4.798559e-01
5.997000e+00  -2.906636e-01  -4.749881e-01
5.998000e+00  -2.985644e-01  -4.699567e-01
5.999000e+00  -3.063772e-01  -4.647632e-01
6.000000e+00  -3.140986e-01  -4.594095e-01
6.001000e+00  -3.217251e-01  -4.538974e-01
6.002000e+00  -3.292536e-01  -4.482289e-01
6.003000e+00  -3.366807e-01  -4.424058e-01
6.004000e+00  -3.440033e-01  -4.364304e-01
6.005000e+00  -3.512180e-01  -4.303047e-01
6.006000e+00  -3.583219e-01  -4.240309e-01
6.007000e+00  -3.653117e-01  -4.176113e-01
6.008000e+00  -3.721845e-01  -4.110483e-01
6.009000e+00  -3.789373e-01  -4.043442e-01
6.010000e+00  -3.855671e-01  -3.975016e-01
6.011000e+00  -3.920710e-01  -3.905230e-01
6.012000e+00  -3.984463e-01  -3.834110e-01
6.013000e+00  -4.046900e-01  -3.761683e-01
6.014000e+00  -4.107996e-01  -3.687975e-01
6.015000e+00  -4.167724e-01  -3.613016e-01
6.016000e+00  -4.226057e-01  -3.536833e-01
6.017000e+00  -4.282971e-01  -3.459455e-01
6.018000e+00  -4.338441e-01  -3.380913e-01
6.019000e+00  -4.392442e-01  -3.301236e-01
6.020000e+00  -4.444952e-01  -3.220456e-01
6.021000e+00  -4.495949e-01  -3.138602e-01
6.022000e+00  -4.545409e-01  -3.055708e-01
6.023000e+00  -4.593313e-01  -2.971805e-01
6.024000e+00  -4.639639e-01  -2.886926e-01
6.025000e+00  -4.684368e-01  -2.801104e-01
6.026000e+00  -4.727481e-01  -2.714372e-01
6.027000e+00  -4.768960e-01  -2.626765e-01
6.028000e+00  -4.808787e-01  -2.538317e-01
6.029000e+00  -4.846946e-01  -2.449062e-01
6.030000e+00  -4.883422e-01  -2.359036e-01
6.031000e+00  -4.918198e-01  -2.268273e-01
6.032000e+00  -4.951262e-01  -2.176810e-01
6.033000e+00  -4.982600e-01  -2.084682e-01
6.034000e+00  -5.012198e-01  -1.991926e-01
6.035000e+00  -5.040046e-01  -1.898578e-01
6.036000e+00  -5.066133e-01  -1.804674e-01
6.037000e+00  -5.090448e-01  -1.710252e-01
6.038000e+00  -5.112983e-01  -1.615348e-01
6.039000e+00  -5.133729e-01  -1.520000e-01
6.040000e+00  -5.152680e-01  -1.424246e-01
6.041000e+00  -5.169827e-01  -1.328121e-01
6.042000e+00  -5.185166e-01  -1.231665e-01
6.043000e+00  -5.198692e-01  -1.134913e-01
6.044000e+00  -5.210400e-01  -1.037905e-01
6.045000e+00  -5.220288e-01  -9.406780e-02
6.046000e+00  -5.228354e-01  -8.432689e-02
6.047000e+00  -5.234595e-01  -7.457157e-02
6.048000e+00  -5.239012e-01  -6.480560e-02
6.049000e+00  -5.241605e-01  -5.503272e-02
6.050000e+00  -5.242375e-01  -4.525666e-02
6.051000e+00  -5.241324e-01  -3.548116e-02
6.052000e+00  -5.238455e-01  -2.570993e-02
6.053000e+00  -5.233771e-01  -1.594666e-02
6.054000e+00  -5.227277e-01  -6.195036e-03
6.055000e+00  -5.218979e-01  3.541283e-03
6.056000e+00  -5.208882e-01  1.325866e-02
6.057000e+00  -5.196993e-01  2.295348e-02
6.058000e+00  -5.183321e-01  3.262217e-02
6.059000e+00  -5.167874e-01  4.226115e-02
6.060000e+00  -5.150661e-01  5.186690e-02
6.061000e+00  -5.131692e-01  6.143592e-02
6.062000e+00  -5.110978e-01  7.096476e-02
6.063000e+00  -5.088531e-01  8.044998e-02
6.064000e+00  -5.064363e-01  8.988818e-02
6.065000e+00  -5.038486e-01  9.927603e-02
6.066000e+00  -5.010916e-01  1.086102e-01
6.067000e+00  -4.981666e-01  1.178875e-01
6.068000e+00  -4.950751e-01  1.271045e-01
6.069000e+00  -4.918187e-01  1.362583e-01
6.070000e+00  -4.883991e-01  1.453455e-01
6.071000e+00  -4.848179e-01  1.543633e-01
6.072000e+00  -4.810770e-01  1.633084e-01
6.073000e+00  -4.771781e-01  1.721779e-01
6.074000e+00  -4.731232e-01  1.809690e-01
6.075000e+00  -4.689141e-01  1.896787e-01
6.076000e+00  -4.645530e-01  1.983042e-01
6.077000e+00  -4.600418e-01  2.068427e-01
6.078000e+00  -4.553827e-01  2.152916e-01
6.079000e+00  -4.505777e-01  2.236482e-01
6.080000e+00  -4.456292e-01  2.319099e-01
6.081000e+00  -4.405394e-01  2.400741e-01
6.082000e+00  -4.353105e-01  2.481384e-01
6.083000e+00  -4.299449e-01  2.561005e-01
6.084000e+00  -4.244450e-01  2.639578e-01
6.085000e+00  -4.188132e-01  2.717083e-01
6.086000e+00  -4.130520e-01  2.793496e-01
6.087000e+00  -4.071638e-01  2.868795e-01
6.088000e+00  -4.011513e-01  2.942961e-01
6.089000e+00  -3.950169e-01  3.015973e-01
6.090000e+00  -3.887632e-01  3.087811e-01
6.091000e+00  -3.823929e-01  3.158455e-01
6.092000e+00  -3.759085e-01  3.227889e-01
6.093000e+00  -3.693129e-01  3.296094e-01
6.094000e+00  -3.626087e-01  3.363054e-01
6.095000e+00  -3.557985e-01  3.428751e-01
6.096000e+00  -3.488852e-01  3.493171e-01
6.097000e+00  -3.418714e-01  3.556299e-01
6.098000e+00  -3.347600e-01  3.618119e-01
6.099000e+00  -3.275538e-01  3.678619e-01
6.100000e+00  -3.202555e-01  3.737785e-01
6.101000e+00  -3.128679e-01  3.795606e-01
6.102000e+00  -3.053939e-01  3.852068e-01
6.103000e+00  -2.978363e-01  3.907163e-01
6.104000e+00  -2.901979e-01  3.960878e-01
6.105000e+00  -2.824816e-01  4.013205e-01
6.106000e+00  -2.746902e-01  4.064134e-01
6.107000e+00  -2.668265e-01  4.113656e-01
6.108000e+00  -2.588935e-01  4.161765e-01
6.109000e+00  -2.508938e-01  4.208452e-01
6.110000e+00  -2.428304e-01  4.253712e-01
6.111000e+00  -2.347061e-01  4.297538e-01
6.112000e+00  -2.265237e-01  4.339924e-01
6.113000e+00  -2.182861e-01  4.380867e-01
6.114000e+00  -2.099960e-01  4.420362e-01
6.115000e+00  -2.016563e-01  4.458406e-01
6.116000e+00  -1.932698e-01  4.494994e-01
6.117000e+00  -1.848392e-01  4.530126e-01
6.118000e+00  -1.763672e-01  4.563799e-01
6.119000e+00  -1.678567e-01  4.596012e-01
6.120000e+00  -1.593105e-01  4.626764e-01
6.121000e+00  -1.507311e-01  4.656056e-01
6.122000e+00  -1.421213e-01  4.683886e-01
6.123000e+00  -1.334838e-01  4.710257e-01
6.124000e+00  -1.248212e-01  4.735170e-01
6.125000e+00  -1.161363e-01  4.758626e-01
6.126000e+00  -1.074316e-01  4.780628e-01
6.127000e+00  -9.870963e-02  4.801178e-01
6.128000e+00  -8.997310e-02  4.820281e-01
6.129000e+00  -8.122450e-02  4.837940e-01
6.130000e+00  -7.246637e-02  4.854159e-01
6.131000e+00  -6.370120e-02  4.868942e-01
6.132000e+00  -5.493148e-02  4.882296e-01
6.133000e+00  -4.615964e-02  4.894226e-01
6.134000e+00  -3.738810e-02  4.904737e-01
6.135000e+00  -2.861926e-02  4.913837e-01
6.136000e+00  -1.985547e-02  4.921531e-01
6.137000e+00  -1.109908e-02  4.927827e-01
6.138000e+00  -2.352383e-03  4.932733e-01
6.139000e+00  6.382350e-03  4.936257e-01
6.140000e+00  1.510288e-02  4.938406e-01
6.141000e+00  2.380699e-02  4.939191e-01
6.142000e+00  3.249250e-02  4.938619e-01
6.143000e+00  4.115727e-02  4.936699e-01
6.144000e+00  4.979919e-02  4.933443e-01
6.145000e+00  5.841617e-02  4.928859e-01
6.146000e+00  6.700617e-02  4.922958e-01
6.147000e+00  7.556717e-02  4.915750e-01
6.148000e+00  8.409718e-02  4.907246e-01
6.149000e+00  9.259427e-02  4.897458e-01
6.150000e+00  1.010565e-01  4.886396e-01
6.151000e+00  1.094820e-01  4.874072e-01
6.152000e+00  1.178690e-01  4.860499e-01
6.153000e+00  1.262156e-01  4.845687e-01
6.154000e+00  1.345200e-01  4.829651e-01
6.155000e+00  1.427805e-01  4.812401e-01
6.156000e+00  1.509954e-01  4.793951e-01
6.157000e+00  1.591631e-01  4.774314e-01
6.158000e+00  1.672818e-01  4.753502e-01
6.159000e+00  1.753500e-01  4.731530e-01
6.160000e+00  1.833661e-01  4.708411e-01
6.161000e+00  1.913286e-01  4.684157e-01
6.162000e+00  1.992359e-01  4.658784e-01
6.163000e+00  2.070867e-01  4.632305e-01
6.164000e+00  2.148794e-01  4.604734e-01
6.165000e+00  2.226127e-01  4.576085e-01
6.166000e+00  2.302853e-01  4.546373e-01
6.167000e+00  2.378957e-01  4.515612e-01
6.168000e+00  2.454427e-01  4.483817e-01
6.169000e+00  2.529250e-01  4.451002e-01
6.170000e+00  2.603415e-01  4.417182e-01
6.171000e+00  2.676908e-01  4.382372e-01
6.172000e+00  2.749719e-01  4.346588e-01
6.173000e+00  2.821836e-01  4.309843e-01
6.174000e+00  2.893248e-01  4.272154e-01
6.175000e+00  2.963945e-01  4.233534e-01
6.176000e+00  3.033916e-01  4.194001e-01
6.177000e+00  3.103151e-01  4.153568e-01
6.178000e+00  3.171640e-01  4.112251e-01
6.179000e+00  3.239375e-01  4.070065e-01
6.180000e+00  3.306346e-01  4.027026e-01
6.181000e+00  3.372544e-01  3.983149e-01
6.182000e+00  3.437961e-01  3.938450e-01
6.183000e+00  3.502589e-01  3.892944e-01
6.184000e+00  3.566420e-01  3.846646e-01
6.185000e+00  3.629446e-01  3.799572e-01
6.186000e+00  3.691661e-01  3.751738e-01
6.187000e+00  3.753056e-01  3.703158e-01
6.188000e+00  3.813626e-01  3.653849e-01
6.189000e+00  3.873364e-01  3.603825e-01
6.190000e+00  3.932265e-01  3.553102e-01
6.191000e+00  3.990321e-01  3.501696e-01
6.192000e+00  4.047529e-01  3.449622e-01
6.193000e+00  4.103881e-01  3.396895e-01
6.194000e+00  4.159374e-01  3.343531e-01
6.195000e+00  4.214003e-01  3.289544e-01
6.196000e+00  4.267763e-01  3.234950e-01
6.197000e+00  4.320650e-01  3.179764e-01
6.198000e+00  4.372660e-01  3.124002e-01
6.199000e+00  4.423790e-01  3.067678e-01
6.200000e+00  4.474035e-01  3.010807e-01
6.201000e+00  4.523393e-01  2.953405e-01
6.202000e+00  4.571861e-01  2.895485e-01
6.203000e+00  4.619436e-01  2.837064e-01
6.204000e+00  4.666115e-01  2.778156e-01
6.205000e+00  4.711897e-01  2.718775e-01
6.206000e+00  4.756778e-01  2.658936e-01
6.207000e+00  4.800758e-01  2.598653e-01
6.208000e+00  4.843835e-01  2.537942e-01
6.209000e+00  4.886007e-01  2.476816e-01
6.210000e+00  4.927274e-01  2.415290e-01
6.211000e+00  4.967634e-01  2.353378e-01
6.212000e+00  5.007086e-01  2.291093e-01
6.213000e+00  5.045631e-01  2.228451e-01
6.214000e+00  5.083267e-01  2.165465e-01
6.215000e+00  5.119995e-01  2.102148e-01
6.216000e+00  5.155814e-01  2.038515e-01
6.217000e+00  5.190726e-01  1.974579e-01
6.218000e+00  5.224729e-01  1.910354e-01
6.219000e+00  5.257826e-01  1.845853e-01
6.220000e+00  5.290017e-01  1.781089e-01
6.221000e+00  5.321302e-01  1.716076e-01
6.222000e+00  5.351684e-01  1.650827e-01
6.223000e+00  5.381162e-01  1.585355e-01
6.224000e+00  5.409740e-01  1.519672e-01
6.225000e+00  5.437417e-01  1.453792e-01
6.226000e+00  5.464198e-01  1.387726e-01
6.227000e+00  5.490082e-01  1.321489e-01
6.228000e+00  5.515073e-01  1.255092e-01
6.229000e+00  5.539172e-01  1.188547e-01
6.230000e+00  5.562383e-01  1.121866e-01
6.231000e+00  5.584708e-01  1.055063e-01
6.232000e+00  5.606149e-01  9.881478e-02
6.233000e+00  5.626709e-01  9.211335e-02
6.234000e+00  5.646392e-01  8.540314e-02
6.235000e+00  5.665201e-01  7.868533e-02
6.236000e+00  5.683139e-01  7.196105e-02
6.237000e+00  5.700208e-01  6.523145e-02
6.238000e+00  5.716414e-01  5.849764e-02
6.239000e+00  5.731759e-01  5.176075e-02
6.240000e+00  5.746248e-01  4.502186e-02
6.241000e+00  5.759884e-01  3.828207e-02
6.242000e+00  5.772671e-01  3.154245e-02
6.243000e+00  5.784613e-01  2.480406e-02
6.244000e+00  5.795715e-01  1.806794e-02
6.245000e+00  5.805981e-01  1.133515e-02
6.246000e+00  5.815416e-01  4.606688e-03
6.247000e+00  5.824024e-01  -2.116422e-03
6.248000e+00  5.831810e-01  -8.833185e-03
6.249000e+00  5.838778e-01  -1.554262e-02
6.250000e+00  5.844933e-01  -2.224374e-02
6.251000e+00  5.850281e-01  -2.893561e-02
6.252000e+00  5.854826e-01  -3.561726e-02
6.253000e+00  5.858574e-01  -4.228777e-02
6.254000e+00  5.861529e-01  -4.894621e-02
6.255000e+00  5.863697e-01  -5.559168e-02
6.256000e+00  5.865084e-01  -6.222328e-02
6.257000e+00  5.865695e-01  -6.884013e-02
6.258000e+00  5.865535e-01  -7.544136e-02
6.259000e+00  5.864610e-01  -8.202611e-02
6.260000e+00  5.862926e-01  -8.859354e-02
6.261000e+00  5.860488e-01  -9.514282e-02
6.262000e+00  5.857303e-01  -1.016731e-01
6.263000e+00  5.853376e-01  -1.081836e-01
6.264000e+00  5.848713e-01  -1.146736e-01
6.265000e+00  5.843320e-01  -1.211422e-01
6.266000e+00  5.837203e-01  -1.275887e-01
6.267000e+00  5.830369e-01  -1.340123e-01
6.268000e+00  5.822823e-01  -1.404123e-01
6.269000e+00  5.814572e-01  -1.467879e-01
6.270000e+00  5.805621e-01  -1.531385e-01
6.271000e+00  5.795978e-01  -1.594633e-01
6.272000e+00  5.785649e-01  -1.657617e-01
6.273000e+00  5.774640e-01  -1.720329e-01
6.274000e+00  5.762958e-01  -1.782763e-01
6.275000e+00  5.750608e-01  -1.844912e-01
6.276000e+00  5.737598e-01  -1.906771e-01
6.277000e+00  5.723935e-01  -1.968332e-01
6.278000e+00  5.709624e-01  -2.029589e-01
6.279000e+00  5.694673e-01  -2.090537e-01
6.280000e+00  5.679088e-01  -2.151169e-01
6.281000e+00  5.662875e-01  -2.211480e-01
6.282000e+00  5.646043e-01  -2.271463e-01
6.283000e+00  5.628596e-01  -2.331114e-01
6.284000e+00  5.610543e-01  -2.390427e-01
6.285000e+00  5.591890e-01  -2.449396e-01
6.286000e+00  5.572643e-01  -2.508017e-01
6.287000e+00  5.552811e-01  -2.566283e-01
6.288000e+00  5.532398e-01  -2.624191e-01
6.289000e+00  5.511413e-01  -2.681735e-01
6.290000e+00  5.489863e-01  -2.738911e-01
6.291000e+00  5.467753e-01  -2.795713e-01
6.292000e+00  5.445092e-01  -2.852138e-01
6.293000e+00  5.421886e-01  -2.908180e-01
6.294000e+00  5.398142e-01  -2.963837e-01
6.295000e+00  5.373866e-01  -3.019102e-01
6.296000e+00  5.349067e-01  -3.073973e-01
6.297000e+00  5.323751e-01  -3.128445e-01
6.298000e+00  5.297924e-01  -3.182514e-01
6.299000e+00  5.271595e-01  -3.236177e-01
6.300000e+00  5.244769e-01  -3.289430e-01
