! Generated by EMerge - 1-port S-parameters
! File generated: 2026-04-04 01:24 
# GHZ S RI R 50
5.300000e+00  5.019155e-01  6.705286e-01
5.301000e+00  5.060479e-01  6.674387e-01
5.302000e+00  5.101586e-01  6.643216e-01
5.303000e+00  5.142473e-01  6.611776e-01
5.304000e+00  5.183139e-01  6.580066e-01
5.305000e+00  5.223583e-01  6.548091e-01
5.306000e+00  5.263801e-01  6.515851e-01
5.307000e+00  5.303793e-01  6.483348e-01
5.308000e+00  5.343557e-01  6.450584e-01
5.309000e+00  5.383090e-01  6.417561e-01
5.310000e+00  5.422392e-01  6.384281e-01
5.311000e+00  5.461460e-01  6.350745e-01
5.312000e+00  5.500294e-01  6.316956e-01
5.313000e+00  5.538890e-01  6.282916e-01
5.314000e+00  5.577248e-01  6.248625e-01
5.315000e+00  5.615366e-01  6.214088e-01
5.316000e+00  5.653242e-01  6.179304e-01
5.317000e+00  5.690874e-01  6.144277e-01
5.318000e+00  5.728262e-01  6.109007e-01
5.319000e+00  5.765404e-01  6.073498e-01
5.320000e+00  5.802297e-01  6.037750e-01
5.321000e+00  5.838942e-01  6.001767e-01
5.322000e+00  5.875335e-01  5.965549e-01
5.323000e+00  5.911476e-01  5.929100e-01
5.324000e+00  5.947363e-01  5.892420e-01
5.325000e+00  5.982995e-01  5.855512e-01
5.326000e+00  6.018371e-01  5.818377e-01
5.327000e+00  6.053488e-01  5.781019e-01
5.328000e+00  6.088346e-01  5.743438e-01
5.329000e+00  6.122944e-01  5.705636e-01
5.330000e+00  6.157279e-01  5.667617e-01
5.331000e+00  6.191352e-01  5.629381e-01
5.332000e+00  6.225159e-01  5.590931e-01
5.333000e+00  6.258701e-01  5.552269e-01
5.334000e+00  6.291975e-01  5.513396e-01
5.335000e+00  6.324982e-01  5.474315e-01
5.336000e+00  6.357718e-01  5.435028e-01
5.337000e+00  6.390184e-01  5.395536e-01
5.338000e+00  6.422378e-01  5.355842e-01
5.339000e+00  6.454299e-01  5.315948e-01
5.340000e+00  6.485946e-01  5.275856e-01
5.341000e+00  6.517318e-01  5.235567e-01
5.342000e+00  6.548413e-01  5.195084e-01
5.343000e+00  6.579230e-01  5.154409e-01
5.344000e+00  6.609769e-01  5.113544e-01
5.345000e+00  6.640029e-01  5.072491e-01
5.346000e+00  6.670007e-01  5.031251e-01
5.347000e+00  6.699704e-01  4.989827e-01
5.348000e+00  6.729119e-01  4.948221e-01
5.349000e+00  6.758249e-01  4.906435e-01
5.350000e+00  6.787095e-01  4.864471e-01
5.351000e+00  6.815656e-01  4.822331e-01
5.352000e+00  6.843930e-01  4.780016e-01
5.353000e+00  6.871917e-01  4.737530e-01
5.354000e+00  6.899615e-01  4.694873e-01
5.355000e+00  6.927024e-01  4.652049e-01
5.356000e+00  6.954143e-01  4.609058e-01
5.357000e+00  6.980971e-01  4.565903e-01
5.358000e+00  7.007507e-01  4.522586e-01
5.359000e+00  7.033751e-01  4.479108e-01
5.360000e+00  7.059701e-01  4.435473e-01
5.361000e+00  7.085357e-01  4.391682e-01
5.362000e+00  7.110718e-01  4.347736e-01
5.363000e+00  7.135783e-01  4.303638e-01
5.364000e+00  7.160552e-01  4.259390e-01
5.365000e+00  7.185023e-01  4.214994e-01
5.366000e+00  7.209196e-01  4.170451e-01
5.367000e+00  7.233071e-01  4.125764e-01
5.368000e+00  7.256646e-01  4.080935e-01
5.369000e+00  7.279921e-01  4.035966e-01
5.370000e+00  7.302896e-01  3.990858e-01
5.371000e+00  7.325568e-01  3.945613e-01
5.372000e+00  7.347939e-01  3.900235e-01
5.373000e+00  7.370007e-01  3.854723e-01
5.374000e+00  7.391772e-01  3.809081e-01
5.375000e+00  7.413232e-01  3.763310e-01
5.376000e+00  7.434388e-01  3.717413e-01
5.377000e+00  7.455239e-01  3.671391e-01
5.378000e+00  7.475784e-01  3.625245e-01
5.379000e+00  7.496022e-01  3.578979e-01
5.380000e+00  7.515954e-01  3.532594e-01
5.381000e+00  7.535578e-01  3.486092e-01
5.382000e+00  7.554894e-01  3.439474e-01
5.383000e+00  7.573902e-01  3.392743e-01
5.384000e+00  7.592600e-01  3.345901e-01
5.385000e+00  7.610989e-01  3.298949e-01
5.386000e+00  7.629068e-01  3.251889e-01
5.387000e+00  7.646836e-01  3.204724e-01
5.388000e+00  7.664293e-01  3.157454e-01
5.389000e+00  7.681439e-01  3.110083e-01
5.390000e+00  7.698272e-01  3.062612e-01
5.391000e+00  7.714793e-01  3.015042e-01
5.392000e+00  7.731001e-01  2.967375e-01
5.393000e+00  7.746895e-01  2.919615e-01
5.394000e+00  7.762476e-01  2.871761e-01
5.395000e+00  7.777742e-01  2.823817e-01
5.396000e+00  7.792694e-01  2.775783e-01
5.397000e+00  7.807330e-01  2.727662e-01
5.398000e+00  7.821651e-01  2.679456e-01
5.399000e+00  7.835656e-01  2.631166e-01
5.400000e+00  7.849345e-01  2.582795e-01
5.401000e+00  7.862717e-01  2.534343e-01
5.402000e+00  7.875771e-01  2.485814e-01
5.403000e+00  7.888508e-01  2.437208e-01
5.404000e+00  7.900928e-01  2.388527e-01
5.405000e+00  7.913029e-01  2.339774e-01
5.406000e+00  7.924811e-01  2.290950e-01
5.407000e+00  7.936274e-01  2.242057e-01
5.408000e+00  7.947418e-01  2.193097e-01
5.409000e+00  7.958243e-01  2.144071e-01
5.410000e+00  7.968747e-01  2.094981e-01
5.411000e+00  7.978931e-01  2.045829e-01
5.412000e+00  7.988794e-01  1.996617e-01
5.413000e+00  7.998336e-01  1.947346e-01
5.414000e+00  8.007556e-01  1.898019e-01
5.415000e+00  8.016455e-01  1.848636e-01
5.416000e+00  8.025032e-01  1.799201e-01
5.417000e+00  8.033286e-01  1.749714e-01
5.418000e+00  8.041218e-01  1.700177e-01
5.419000e+00  8.048826e-01  1.650592e-01
5.420000e+00  8.056111e-01  1.600961e-01
5.421000e+00  8.063073e-01  1.551286e-01
5.422000e+00  8.069710e-01  1.501567e-01
5.423000e+00  8.076023e-01  1.451808e-01
5.424000e+00  8.082012e-01  1.402009e-01
5.425000e+00  8.087675e-01  1.352173e-01
5.426000e+00  8.093013e-01  1.302301e-01
5.427000e+00  8.098026e-01  1.252395e-01
5.428000e+00  8.102713e-01  1.202456e-01
5.429000e+00  8.107074e-01  1.152486e-01
5.430000e+00  8.111108e-01  1.102488e-01
5.431000e+00  8.114815e-01  1.052462e-01
5.432000e+00  8.118196e-01  1.002411e-01
5.433000e+00  8.121249e-01  9.523357e-02
5.434000e+00  8.123974e-01  9.022383e-02
5.435000e+00  8.126371e-01  8.521205e-02
5.436000e+00  8.128440e-01  8.019839e-02
5.437000e+00  8.130180e-01  7.518302e-02
5.438000e+00  8.131592e-01  7.016612e-02
5.439000e+00  8.132674e-01  6.514786e-02
5.440000e+00  8.133426e-01  6.012839e-02
5.441000e+00  8.133849e-01  5.510791e-02
5.442000e+00  8.133941e-01  5.008657e-02
5.443000e+00  8.133703e-01  4.506455e-02
5.444000e+00  8.133135e-01  4.004202e-02
5.445000e+00  8.132235e-01  3.501914e-02
5.446000e+00  8.131003e-01  2.999609e-02
5.447000e+00  8.129440e-01  2.497304e-02
5.448000e+00  8.127545e-01  1.995016e-02
5.449000e+00  8.125317e-01  1.492762e-02
5.450000e+00  8.122757e-01  9.905591e-03
5.451000e+00  8.119863e-01  4.884246e-03
5.452000e+00  8.116636e-01  -1.362438e-04
5.453000e+00  8.113075e-01  -5.155707e-03
5.454000e+00  8.109180e-01  -1.017397e-02
5.455000e+00  8.104951e-01  -1.519086e-02
5.456000e+00  8.100387e-01  -2.020621e-02
5.457000e+00  8.095487e-01  -2.521984e-02
5.458000e+00  8.090252e-01  -3.023158e-02
5.459000e+00  8.084682e-01  -3.524125e-02
5.460000e+00  8.078775e-01  -4.024868e-02
5.461000e+00  8.072531e-01  -4.525370e-02
5.462000e+00  8.065951e-01  -5.025613e-02
5.463000e+00  8.059033e-01  -5.525579e-02
5.464000e+00  8.051777e-01  -6.025251e-02
5.465000e+00  8.044183e-01  -6.524611e-02
5.466000e+00  8.036251e-01  -7.023641e-02
5.467000e+00  8.027980e-01  -7.522324e-02
5.468000e+00  8.019369e-01  -8.020641e-02
5.469000e+00  8.010419e-01  -8.518575e-02
5.470000e+00  8.001129e-01  -9.016107e-02
5.471000e+00  7.991498e-01  -9.513219e-02
5.472000e+00  7.981527e-01  -1.000989e-01
5.473000e+00  7.971214e-01  -1.050611e-01
5.474000e+00  7.960559e-01  -1.100186e-01
5.475000e+00  7.949562e-01  -1.149711e-01
5.476000e+00  7.938223e-01  -1.199185e-01
5.477000e+00  7.926540e-01  -1.248606e-01
5.478000e+00  7.914514e-01  -1.297972e-01
5.479000e+00  7.902144e-01  -1.347281e-01
5.480000e+00  7.889430e-01  -1.396531e-01
5.481000e+00  7.876370e-01  -1.445721e-01
5.482000e+00  7.862966e-01  -1.494849e-01
5.483000e+00  7.849216e-01  -1.543912e-01
5.484000e+00  7.835119e-01  -1.592909e-01
5.485000e+00  7.820676e-01  -1.641837e-01
5.486000e+00  7.805885e-01  -1.690695e-01
5.487000e+00  7.790747e-01  -1.739481e-01
5.488000e+00  7.775261e-01  -1.788192e-01
5.489000e+00  7.759426e-01  -1.836827e-01
5.490000e+00  7.743242e-01  -1.885384e-01
5.491000e+00  7.726708e-01  -1.933860e-01
5.492000e+00  7.709824e-01  -1.982254e-01
5.493000e+00  7.692589e-01  -2.030563e-01
5.494000e+00  7.675003e-01  -2.078786e-01
5.495000e+00  7.657065e-01  -2.126920e-01
5.496000e+00  7.638775e-01  -2.174964e-01
5.497000e+00  7.620132e-01  -2.222914e-01
5.498000e+00  7.601136e-01  -2.270769e-01
5.499000e+00  7.581786e-01  -2.318527e-01
5.500000e+00  7.562082e-01  -2.366185e-01
5.501000e+00  7.542023e-01  -2.413742e-01
5.502000e+00  7.521608e-01  -2.461194e-01
5.503000e+00  7.500837e-01  -2.508541e-01
5.504000e+00  7.479709e-01  -2.555779e-01
5.505000e+00  7.458224e-01  -2.602906e-01
5.506000e+00  7.436382e-01  -2.649920e-01
5.507000e+00  7.414181e-01  -2.696818e-01
5.508000e+00  7.391621e-01  -2.743599e-01
5.509000e+00  7.368702e-01  -2.790259e-01
5.510000e+00  7.345423e-01  -2.836796e-01
5.511000e+00  7.321783e-01  -2.883209e-01
5.512000e+00  7.297782e-01  -2.929494e-01
5.513000e+00  7.273419e-01  -2.975649e-01
5.514000e+00  7.248694e-01  -3.021671e-01
5.515000e+00  7.223605e-01  -3.067558e-01
5.516000e+00  7.198154e-01  -3.113307e-01
5.517000e+00  7.172338e-01  -3.158916e-01
5.518000e+00  7.146157e-01  -3.204382e-01
5.519000e+00  7.119611e-01  -3.249702e-01
5.520000e+00  7.092699e-01  -3.294874e-01
5.521000e+00  7.065421e-01  -3.339895e-01
5.522000e+00  7.037776e-01  -3.384762e-01
5.523000e+00  7.009763e-01  -3.429472e-01
5.524000e+00  6.981381e-01  -3.474023e-01
5.525000e+00  6.952631e-01  -3.518412e-01
5.526000e+00  6.923512e-01  -3.562635e-01
5.527000e+00  6.894022e-01  -3.606691e-01
5.528000e+00  6.864162e-01  -3.650575e-01
5.529000e+00  6.833931e-01  -3.694285e-01
5.530000e+00  6.803328e-01  -3.737818e-01
5.531000e+00  6.772353e-01  -3.781171e-01
5.532000e+00  6.741006e-01  -3.824341e-01
5.533000e+00  6.709284e-01  -3.867325e-01
5.534000e+00  6.677189e-01  -3.910118e-01
5.535000e+00  6.644720e-01  -3.952719e-01
5.536000e+00  6.611875e-01  -3.995124e-01
5.537000e+00  6.578655e-01  -4.037330e-01
5.538000e+00  6.545059e-01  -4.079332e-01
5.539000e+00  6.511086e-01  -4.121129e-01
5.540000e+00  6.476737e-01  -4.162716e-01
5.541000e+00  6.442009e-01  -4.204090e-01
5.542000e+00  6.406904e-01  -4.245248e-01
5.543000e+00  6.371421e-01  -4.286185e-01
5.544000e+00  6.335558e-01  -4.326899e-01
5.545000e+00  6.299316e-01  -4.367386e-01
5.546000e+00  6.262695e-01  -4.407641e-01
5.547000e+00  6.225693e-01  -4.447661e-01
5.548000e+00  6.188310e-01  -4.487443e-01
5.549000e+00  6.150547e-01  -4.526982e-01
5.550000e+00  6.112402e-01  -4.566275e-01
5.551000e+00  6.073875e-01  -4.605318e-01
5.552000e+00  6.034967e-01  -4.644106e-01
5.553000e+00  5.995676e-01  -4.682636e-01
5.554000e+00  5.956003e-01  -4.720903e-01
5.555000e+00  5.915947e-01  -4.758903e-01
5.556000e+00  5.875507e-01  -4.796632e-01
5.557000e+00  5.834685e-01  -4.834087e-01
5.558000e+00  5.793478e-01  -4.871261e-01
5.559000e+00  5.751889e-01  -4.908152e-01
5.560000e+00  5.709915e-01  -4.944754e-01
5.561000e+00  5.667557e-01  -4.981063e-01
5.562000e+00  5.624816e-01  -5.017075e-01
5.563000e+00  5.581690e-01  -5.052784e-01
5.564000e+00  5.538180e-01  -5.088187e-01
5.565000e+00  5.494287e-01  -5.123278e-01
5.566000e+00  5.450009e-01  -5.158053e-01
5.567000e+00  5.405347e-01  -5.192506e-01
5.568000e+00  5.360302e-01  -5.226633e-01
5.569000e+00  5.314873e-01  -5.260429e-01
5.570000e+00  5.269061e-01  -5.293888e-01
5.571000e+00  5.222865e-01  -5.327006e-01
5.572000e+00  5.176287e-01  -5.359777e-01
5.573000e+00  5.129327e-01  -5.392196e-01
5.574000e+00  5.081984e-01  -5.424258e-01
5.575000e+00  5.034259e-01  -5.455957e-01
5.576000e+00  4.986154e-01  -5.487287e-01
5.577000e+00  4.937668e-01  -5.518244e-01
5.578000e+00  4.888802e-01  -5.548821e-01
5.579000e+00  4.839557e-01  -5.579014e-01
5.580000e+00  4.789933e-01  -5.608815e-01
5.581000e+00  4.739931e-01  -5.638219e-01
5.582000e+00  4.689552e-01  -5.667221e-01
5.583000e+00  4.638798e-01  -5.695814e-01
5.584000e+00  4.587668e-01  -5.723992e-01
5.585000e+00  4.536165e-01  -5.751749e-01
5.586000e+00  4.484288e-01  -5.779079e-01
5.587000e+00  4.432040e-01  -5.805976e-01
5.588000e+00  4.379422e-01  -5.832433e-01
5.589000e+00  4.326434e-01  -5.858443e-01
5.590000e+00  4.273079e-01  -5.884001e-01
5.591000e+00  4.219359e-01  -5.909099e-01
5.592000e+00  4.165273e-01  -5.933731e-01
5.593000e+00  4.110825e-01  -5.957891e-01
5.594000e+00  4.056017e-01  -5.981570e-01
5.595000e+00  4.000849e-01  -6.004763e-01
5.596000e+00  3.945324e-01  -6.027463e-01
5.597000e+00  3.889445e-01  -6.049662e-01
5.598000e+00  3.833213e-01  -6.071353e-01
5.599000e+00  3.776631e-01  -6.092529e-01
5.600000e+00  3.719701e-01  -6.113183e-01
5.601000e+00  3.662425e-01  -6.133307e-01
5.602000e+00  3.604807e-01  -6.152894e-01
5.603000e+00  3.546849e-01  -6.171936e-01
5.604000e+00  3.488555e-01  -6.190426e-01
5.605000e+00  3.429926e-01  -6.208356e-01
5.606000e+00  3.370967e-01  -6.225719e-01
5.607000e+00  3.311681e-01  -6.242506e-01
5.608000e+00  3.252071e-01  -6.258709e-01
5.609000e+00  3.192141e-01  -6.274321e-01
5.610000e+00  3.131894e-01  -6.289333e-01
5.611000e+00  3.071335e-01  -6.303738e-01
5.612000e+00  3.010467e-01  -6.317527e-01
5.613000e+00  2.949295e-01  -6.330693e-01
5.614000e+00  2.887823e-01  -6.343225e-01
5.615000e+00  2.826057e-01  -6.355117e-01
5.616000e+00  2.763999e-01  -6.366360e-01
5.617000e+00  2.701657e-01  -6.376945e-01
5.618000e+00  2.639033e-01  -6.386864e-01
5.619000e+00  2.576135e-01  -6.396108e-01
5.620000e+00  2.512967e-01  -6.404669e-01
5.621000e+00  2.449535e-01  -6.412537e-01
5.622000e+00  2.385846e-01  -6.419704e-01
5.623000e+00  2.321904e-01  -6.426161e-01
5.624000e+00  2.257717e-01  -6.431899e-01
5.625000e+00  2.193290e-01  -6.436909e-01
5.626000e+00  2.128632e-01  -6.441183e-01
5.627000e+00  2.063748e-01  -6.444711e-01
5.628000e+00  1.998646e-01  -6.447484e-01
5.629000e+00  1.933333e-01  -6.449493e-01
5.630000e+00  1.867818e-01  -6.450730e-01
5.631000e+00  1.802107e-01  -6.451184e-01
5.632000e+00  1.736210e-01  -6.450847e-01
5.633000e+00  1.670134e-01  -6.449710e-01
5.634000e+00  1.603889e-01  -6.447763e-01
5.635000e+00  1.537483e-01  -6.444998e-01
5.636000e+00  1.470926e-01  -6.441404e-01
5.637000e+00  1.404227e-01  -6.436974e-01
5.638000e+00  1.337396e-01  -6.431698e-01
5.639000e+00  1.270443e-01  -6.425567e-01
5.640000e+00  1.203378e-01  -6.418571e-01
5.641000e+00  1.136213e-01  -6.410702e-01
5.642000e+00  1.068959e-01  -6.401950e-01
5.643000e+00  1.001626e-01  -6.392308e-01
5.644000e+00  9.342258e-02  -6.381765e-01
5.645000e+00  8.667713e-02  -6.370312e-01
5.646000e+00  7.992743e-02  -6.357942e-01
5.647000e+00  7.317476e-02  -6.344645e-01
5.648000e+00  6.642040e-02  -6.330413e-01
5.649000e+00  5.966569e-02  -6.315237e-01
5.650000e+00  5.291200e-02  -6.299109e-01
5.651000e+00  4.616072e-02  -6.282020e-01
5.652000e+00  3.941328e-02  -6.263962e-01
5.653000e+00  3.267118e-02  -6.244927e-01
5.654000e+00  2.593590e-02  -6.224907e-01
5.655000e+00  1.920899e-02  -6.203895e-01
5.656000e+00  1.249205e-02  -6.181882e-01
5.657000e+00  5.786683e-03  -6.158862e-01
5.658000e+00  -9.054488e-04  -6.134826e-01
5.659000e+00  -7.582651e-03  -6.109769e-01
5.660000e+00  -1.424319e-02  -6.083683e-01
5.661000e+00  -2.088529e-02  -6.056561e-01
5.662000e+00  -2.750715e-02  -6.028397e-01
5.663000e+00  -3.410690e-02  -5.999185e-01
5.664000e+00  -4.068268e-02  -5.968919e-01
5.665000e+00  -4.723253e-02  -5.937593e-01
5.666000e+00  -5.375451e-02  -5.905203e-01
5.667000e+00  -6.024659e-02  -5.871743e-01
5.668000e+00  -6.670674e-02  -5.837208e-01
5.669000e+00  -7.313287e-02  -5.801595e-01
5.670000e+00  -7.952285e-02  -5.764899e-01
5.671000e+00  -8.587452e-02  -5.727116e-01
5.672000e+00  -9.218568e-02  -5.688244e-01
5.673000e+00  -9.845408e-02  -5.648280e-01
5.674000e+00  -1.046774e-01  -5.607220e-01
5.675000e+00  -1.108535e-01  -5.565065e-01
5.676000e+00  -1.169798e-01  -5.521811e-01
5.677000e+00  -1.230540e-01  -5.477457e-01
5.678000e+00  -1.290737e-01  -5.432005e-01
5.679000e+00  -1.350364e-01  -5.385453e-01
5.680000e+00  -1.409396e-01  -5.337801e-01
5.681000e+00  -1.467807e-01  -5.289052e-01
5.682000e+00  -1.525573e-01  -5.239207e-01
5.683000e+00  -1.582667e-01  -5.188267e-01
5.684000e+00  -1.639063e-01  -5.136237e-01
5.685000e+00  -1.694734e-01  -5.083119e-01
5.686000e+00  -1.749653e-01  -5.028918e-01
5.687000e+00  -1.803794e-01  -4.973638e-01
5.688000e+00  -1.857128e-01  -4.917286e-01
5.689000e+00  -1.909628e-01  -4.859866e-01
5.690000e+00  -1.961266e-01  -4.801387e-01
5.691000e+00  -2.012014e-01  -4.741856e-01
5.692000e+00  -2.061843e-01  -4.681282e-01
5.693000e+00  -2.110725e-01  -4.619673e-01
5.694000e+00  -2.158632e-01  -4.557040e-01
5.695000e+00  -2.205534e-01  -4.493394e-01
5.696000e+00  -2.251403e-01  -4.428747e-01
5.697000e+00  -2.296209e-01  -4.363110e-01
5.698000e+00  -2.339924e-01  -4.296499e-01
5.699000e+00  -2.382517e-01  -4.228926e-01
5.700000e+00  -2.423961e-01  -4.160408e-01
5.701000e+00  -2.464226e-01  -4.090960e-01
5.702000e+00  -2.503282e-01  -4.020600e-01
5.703000e+00  -2.541101e-01  -3.949346e-01
5.704000e+00  -2.577653e-01  -3.877217e-01
5.705000e+00  -2.612911e-01  -3.804233e-01
5.706000e+00  -2.646844e-01  -3.730416e-01
5.707000e+00  -2.679425e-01  -3.655786e-01
5.708000e+00  -2.710625e-01  -3.580367e-01
5.709000e+00  -2.740417e-01  -3.504184e-01
5.710000e+00  -2.768772e-01  -3.427262e-01
5.711000e+00  -2.795663e-01  -3.349626e-01
5.712000e+00  -2.821063e-01  -3.271304e-01
5.713000e+00  -2.844946e-01  -3.192324e-01
5.714000e+00  -2.867285e-01  -3.112715e-01
5.715000e+00  -2.888055e-01  -3.032509e-01
5.716000e+00  -2.907231e-01  -2.951735e-01
5.717000e+00  -2.924788e-01  -2.870427e-01
5.718000e+00  -2.940702e-01  -2.788617e-01
5.719000e+00  -2.954950e-01  -2.706341e-01
5.720000e+00  -2.967509e-01  -2.623634e-01
5.721000e+00  -2.978358e-01  -2.540532e-01
5.722000e+00  -2.987476e-01  -2.457074e-01
5.723000e+00  -2.994843e-01  -2.373296e-01
5.724000e+00  -3.000438e-01  -2.289239e-01
5.725000e+00  -3.004245e-01  -2.204944e-01
5.726000e+00  -3.006245e-01  -2.120450e-01
5.727000e+00  -3.006422e-01  -2.035802e-01
5.728000e+00  -3.004762e-01  -1.951041e-01
5.729000e+00  -3.001249e-01  -1.866212e-01
5.730000e+00  -2.995870e-01  -1.781359e-01
5.731000e+00  -2.988615e-01  -1.696528e-01
5.732000e+00  -2.979472e-01  -1.611766e-01
5.733000e+00  -2.968431e-01  -1.527119e-01
5.734000e+00  -2.955486e-01  -1.442635e-01
5.735000e+00  -2.940628e-01  -1.358362e-01
5.736000e+00  -2.923854e-01  -1.274350e-01
5.737000e+00  -2.905158e-01  -1.190648e-01
5.738000e+00  -2.884538e-01  -1.107305e-01
5.739000e+00  -2.861994e-01  -1.024374e-01
5.740000e+00  -2.837527e-01  -9.419032e-02
5.741000e+00  -2.811137e-01  -8.599455e-02
5.742000e+00  -2.782829e-01  -7.785521e-02
5.743000e+00  -2.752608e-01  -6.977750e-02
5.744000e+00  -2.720481e-01  -6.176661e-02
5.745000e+00  -2.686456e-01  -5.382776e-02
5.746000e+00  -2.650544e-01  -4.596619e-02
5.747000e+00  -2.612757e-01  -3.818713e-02
5.748000e+00  -2.573108e-01  -3.049580e-02
5.749000e+00  -2.531612e-01  -2.289742e-02
5.750000e+00  -2.488286e-01  -1.539719e-02
5.751000e+00  -2.443149e-01  -8.000285e-03
5.752000e+00  -2.396221e-01  -7.118576e-04
5.753000e+00  -2.347524e-01  6.462984e-03
5.754000e+00  -2.297082e-01  1.351917e-02
5.755000e+00  -2.244921e-01  2.045169e-02
5.756000e+00  -2.191068e-01  2.725556e-02
5.757000e+00  -2.135551e-01  3.392591e-02
5.758000e+00  -2.078401e-01  4.045789e-02
5.759000e+00  -2.019650e-01  4.684675e-02
5.760000e+00  -1.959331e-01  5.308782e-02
5.761000e+00  -1.897481e-01  5.917651e-02
5.762000e+00  -1.834136e-01  6.510834e-02
5.763000e+00  -1.769335e-01  7.087893e-02
5.764000e+00  -1.703116e-01  7.648398e-02
5.765000e+00  -1.635523e-01  8.191935e-02
5.766000e+00  -1.566597e-01  8.718097e-02
5.767000e+00  -1.496383e-01  9.226493e-02
5.768000e+00  -1.424926e-01  9.716744e-02
5.769000e+00  -1.352273e-01  1.018848e-01
5.770000e+00  -1.278472e-01  1.064136e-01
5.771000e+00  -1.203573e-01  1.107504e-01
5.772000e+00  -1.127625e-01  1.148920e-01
5.773000e+00  -1.050681e-01  1.188352e-01
5.774000e+00  -9.727919e-02  1.225773e-01
5.775000e+00  -8.940119e-02  1.261155e-01
5.776000e+00  -8.143953e-02  1.294471e-01
5.777000e+00  -7.339971e-02  1.325699e-01
5.778000e+00  -6.528733e-02  1.354814e-01
5.779000e+00  -5.710804e-02  1.381797e-01
5.780000e+00  -4.886757e-02  1.406629e-01
5.781000e+00  -4.057170e-02  1.429293e-01
5.782000e+00  -3.222627e-02  1.449773e-01
5.783000e+00  -2.383715e-02  1.468055e-01
5.784000e+00  -1.541024e-02  1.484129e-01
5.785000e+00  -6.951507e-03  1.497985e-01
5.786000e+00  1.533101e-03  1.509613e-01
5.787000e+00  1.003760e-02  1.519009e-01
5.788000e+00  1.855600e-02  1.526168e-01
5.789000e+00  2.708231e-02  1.531087e-01
5.790000e+00  3.561053e-02  1.533766e-01
5.791000e+00  4.413470e-02  1.534206e-01
5.792000e+00  5.264885e-02  1.532410e-01
5.793000e+00  6.114704e-02  1.528383e-01
5.794000e+00  6.962336e-02  1.522131e-01
5.795000e+00  7.807196e-02  1.513663e-01
5.796000e+00  8.648698e-02  1.502989e-01
5.797000e+00  9.486267e-02  1.490119e-01
5.798000e+00  1.031933e-01  1.475069e-01
5.799000e+00  1.114731e-01  1.457852e-01
5.800000e+00  1.196967e-01  1.438486e-01
5.801000e+00  1.278583e-01  1.416989e-01
5.802000e+00  1.359526e-01  1.393380e-01
5.803000e+00  1.439742e-01  1.367681e-01
5.804000e+00  1.519178e-01  1.339915e-01
5.805000e+00  1.597781e-01  1.310105e-01
5.806000e+00  1.675501e-01  1.278278e-01
5.807000e+00  1.752287e-01  1.244460e-01
5.808000e+00  1.828091e-01  1.208680e-01
5.809000e+00  1.902863e-01  1.170966e-01
5.810000e+00  1.976557e-01  1.131351e-01
5.811000e+00  2.049127e-01  1.089864e-01
5.812000e+00  2.120528e-01  1.046540e-01
5.813000e+00  2.190716e-01  1.001413e-01
5.814000e+00  2.259648e-01  9.545170e-02
5.815000e+00  2.327284e-01  9.058886e-02
5.816000e+00  2.393582e-01  8.555646e-02
5.817000e+00  2.458504e-01  8.035828e-02
5.818000e+00  2.522013e-01  7.499821e-02
5.819000e+00  2.584070e-01  6.948016e-02
5.820000e+00  2.644643e-01  6.380818e-02
5.821000e+00  2.703695e-01  5.798633e-02
5.822000e+00  2.761195e-01  5.201878e-02
5.823000e+00  2.817111e-01  4.590972e-02
5.824000e+00  2.871414e-01  3.966344e-02
5.825000e+00  2.924073e-01  3.328425e-02
5.826000e+00  2.975062e-01  2.677651e-02
5.827000e+00  3.024354e-01  2.014462e-02
5.828000e+00  3.071924e-01  1.339304e-02
5.829000e+00  3.117749e-01  6.526250e-03
5.830000e+00  3.161805e-01  -4.512518e-04
5.831000e+00  3.204072e-01  -7.534923e-03
5.832000e+00  3.244530e-01  -1.472020e-02
5.833000e+00  3.283159e-01  -2.200252e-02
5.834000e+00  3.319942e-01  -2.937727e-02
5.835000e+00  3.354863e-01  -3.683985e-02
5.836000e+00  3.387907e-01  -4.438565e-02
5.837000e+00  3.419060e-01  -5.201005e-02
5.838000e+00  3.448308e-01  -5.970842e-02
5.839000e+00  3.475641e-01  -6.747613e-02
5.840000e+00  3.501048e-01  -7.530858e-02
5.841000e+00  3.524519e-01  -8.320115e-02
5.842000e+00  3.546046e-01  -9.114923e-02
5.843000e+00  3.565622e-01  -9.914823e-02
5.844000e+00  3.583241e-01  -1.071936e-01
5.845000e+00  3.598897e-01  -1.152807e-01
5.846000e+00  3.612588e-01  -1.234050e-01
5.847000e+00  3.624309e-01  -1.315620e-01
5.848000e+00  3.634059e-01  -1.397473e-01
5.849000e+00  3.641837e-01  -1.479562e-01
5.850000e+00  3.647643e-01  -1.561844e-01
5.851000e+00  3.651478e-01  -1.644275e-01
5.852000e+00  3.653343e-01  -1.726810e-01
5.853000e+00  3.653241e-01  -1.809405e-01
5.854000e+00  3.651176e-01  -1.892018e-01
5.855000e+00  3.647153e-01  -1.974605e-01
5.856000e+00  3.641176e-01  -2.057123e-01
5.857000e+00  3.633252e-01  -2.139531e-01
5.858000e+00  3.623388e-01  -2.221785e-01
5.859000e+00  3.611592e-01  -2.303846e-01
5.860000e+00  3.597872e-01  -2.385671e-01
5.861000e+00  3.582237e-01  -2.467219e-01
5.862000e+00  3.564699e-01  -2.548450e-01
5.863000e+00  3.545267e-01  -2.629325e-01
5.864000e+00  3.523953e-01  -2.709803e-01
5.865000e+00  3.500770e-01  -2.789845e-01
5.866000e+00  3.475730e-01  -2.869413e-01
5.867000e+00  3.448848e-01  -2.948468e-01
5.868000e+00  3.420137e-01  -3.026972e-01
5.869000e+00  3.389612e-01  -3.104888e-01
5.870000e+00  3.357288e-01  -3.182179e-01
5.871000e+00  3.323184e-01  -3.258808e-01
5.872000e+00  3.287314e-01  -3.334739e-01
5.873000e+00  3.249696e-01  -3.409937e-01
5.874000e+00  3.210348e-01  -3.484366e-01
5.875000e+00  3.169290e-01  -3.557991e-01
5.876000e+00  3.126539e-01  -3.630779e-01
5.877000e+00  3.082117e-01  -3.702695e-01
5.878000e+00  3.036042e-01  -3.773706e-01
5.879000e+00  2.988336e-01  -3.843780e-01
5.880000e+00  2.939020e-01  -3.912883e-01
5.881000e+00  2.888115e-01  -3.980985e-01
5.882000e+00  2.835645e-01  -4.048052e-01
5.883000e+00  2.781632e-01  -4.114056e-01
5.884000e+00  2.726099e-01  -4.178964e-01
5.885000e+00  2.669070e-01  -4.242748e-01
5.886000e+00  2.610569e-01  -4.305378e-01
5.887000e+00  2.550621e-01  -4.366824e-01
5.888000e+00  2.489252e-01  -4.427058e-01
5.889000e+00  2.426486e-01  -4.486052e-01
5.890000e+00  2.362350e-01  -4.543779e-01
5.891000e+00  2.296870e-01  -4.600212e-01
5.892000e+00  2.230074e-01  -4.655324e-01
5.893000e+00  2.161989e-01  -4.709089e-01
5.894000e+00  2.092642e-01  -4.761481e-01
5.895000e+00  2.022062e-01  -4.812477e-01
5.896000e+00  1.950277e-01  -4.862051e-01
5.897000e+00  1.877317e-01  -4.910179e-01
5.898000e+00  1.803211e-01  -4.956839e-01
5.899000e+00  1.727989e-01  -5.002006e-01
5.900000e+00  1.651680e-01  -5.045660e-01
5.901000e+00  1.574317e-01  -5.087777e-01
5.902000e+00  1.495929e-01  -5.128338e-01
5.903000e+00  1.416548e-01  -5.167321e-01
5.904000e+00  1.336206e-01  -5.204706e-01
5.905000e+00  1.254935e-01  -5.240474e-01
5.906000e+00  1.172767e-01  -5.274605e-01
5.907000e+00  1.089735e-01  -5.307082e-01
5.908000e+00  1.005873e-01  -5.337886e-01
5.909000e+00  9.212138e-02  -5.367001e-01
5.910000e+00  8.357912e-02  -5.394409e-01
5.911000e+00  7.496395e-02  -5.420096e-01
5.912000e+00  6.627932e-02  -5.444044e-01
5.913000e+00  5.752872e-02  -5.466240e-01
5.914000e+00  4.871564e-02  -5.486670e-01
5.915000e+00  3.984364e-02  -5.505319e-01
5.916000e+00  3.091628e-02  -5.522176e-01
5.917000e+00  2.193716e-02  -5.537228e-01
5.918000e+00  1.290991e-02  -5.550463e-01
5.919000e+00  3.838184e-03  -5.561870e-01
5.920000e+00  -5.274342e-03  -5.571440e-01
5.921000e+00  -1.442396e-02  -5.579162e-01
5.922000e+00  -2.360695e-02  -5.585028e-01
5.923000e+00  -3.281956e-02  -5.589030e-01
5.924000e+00  -4.205800e-02  -5.591161e-01
5.925000e+00  -5.131850e-02  -5.591413e-01
5.926000e+00  -6.059723e-02  -5.589781e-01
5.927000e+00  -6.989037e-02  -5.586259e-01
5.928000e+00  -7.919406e-02  -5.580843e-01
5.929000e+00  -8.850444e-02  -5.573530e-01
5.930000e+00  -9.781763e-02  -5.564316e-01
5.931000e+00  -1.071297e-01  -5.553199e-01
5.932000e+00  -1.164369e-01  -5.540177e-01
5.933000e+00  -1.257351e-01  -5.525250e-01
5.934000e+00  -1.350204e-01  -5.508419e-01
5.935000e+00  -1.442891e-01  -5.489683e-01
5.936000e+00  -1.535370e-01  -5.469046e-01
5.937000e+00  -1.627602e-01  -5.446508e-01
5.938000e+00  -1.719549e-01  -5.422074e-01
5.939000e+00  -1.811170e-01  -5.395748e-01
5.940000e+00  -1.902427e-01  -5.367535e-01
5.941000e+00  -1.993279e-01  -5.337440e-01
5.942000e+00  -2.083687e-01  -5.305471e-01
5.943000e+00  -2.173612e-01  -5.271634e-01
5.944000e+00  -2.263015e-01  -5.235939e-01
5.945000e+00  -2.351856e-01  -5.198395e-01
5.946000e+00  -2.440097e-01  -5.159011e-01
5.947000e+00  -2.527698e-01  -5.117798e-01
5.948000e+00  -2.614621e-01  -5.074769e-01
5.949000e+00  -2.700828e-01  -5.029936e-01
5.950000e+00  -2.786279e-01  -4.983312e-01
5.951000e+00  -2.870937e-01  -4.934912e-01
5.952000e+00  -2.954763e-01  -4.884751e-01
5.953000e+00  -3.037721e-01  -4.832845e-01
5.954000e+00  -3.119773e-01  -4.779211e-01
5.955000e+00  -3.200881e-01  -4.723868e-01
5.956000e+00  -3.281010e-01  -4.666833e-01
5.957000e+00  -3.360122e-01  -4.608125e-01
5.958000e+00  -3.438182e-01  -4.547767e-01
5.959000e+00  -3.515154e-01  -4.485778e-01
5.960000e+00  -3.591004e-01  -4.422180e-01
5.961000e+00  -3.665696e-01  -4.356997e-01
5.962000e+00  -3.739196e-01  -4.290252e-01
5.963000e+00  -3.811470e-01  -4.221970e-01
5.964000e+00  -3.882486e-01  -4.152175e-01
5.965000e+00  -3.952210e-01  -4.080894e-01
5.966000e+00  -4.020611e-01  -4.008154e-01
5.967000e+00  -4.087657e-01  -3.933982e-01
5.968000e+00  -4.153316e-01  -3.858407e-01
5.969000e+00  -4.217560e-01  -3.781457e-01
5.970000e+00  -4.280357e-01  -3.703163e-01
5.971000e+00  -4.341680e-01  -3.623555e-01
5.972000e+00  -4.401499e-01  -3.542664e-01
5.973000e+00  -4.459788e-01  -3.460523e-01
5.974000e+00  -4.516518e-01  -3.377163e-01
5.975000e+00  -4.571666e-01  -3.292618e-01
5.976000e+00  -4.625204e-01  -3.206921e-01
5.977000e+00  -4.677108e-01  -3.120108e-01
5.978000e+00  -4.727355e-01  -3.032213e-01
5.979000e+00  -4.775922e-01  -2.943271e-01
5.980000e+00  -4.822787e-01  -2.853320e-01
5.981000e+00  -4.867928e-01  -2.762394e-01
5.982000e+00  -4.911325e-01  -2.670533e-01
5.983000e+00  -4.952959e-01  -2.577773e-01
5.984000e+00  -4.992811e-01  -2.484152e-01
5.985000e+00  -5.030864e-01  -2.389709e-01
5.986000e+00  -5.067101e-01  -2.294482e-01
5.987000e+00  -5.101505e-01  -2.198511e-01
5.988000e+00  -5.134063e-01  -2.101836e-01
5.989000e+00  -5.164761e-01  -2.004497e-01
5.990000e+00  -5.193585e-01  -1.906533e-01
5.991000e+00  -5.220523e-01  -1.807986e-01
5.992000e+00  -5.245565e-01  -1.708895e-01
5.993000e+00  -5.268701e-01  -1.609302e-01
5.994000e+00  -5.289922e-01  -1.509249e-01
5.995000e+00  -5.309220e-01  -1.408776e-01
5.996000e+00  -5.326588e-01  -1.307924e-01
5.997000e+00  -5.342020e-01  -1.206736e-01
5.998000e+00  -5.355511e-01  -1.105253e-01
5.999000e+00  -5.367057e-01  -1.003517e-01
6.000000e+00  -5.376656e-01  -9.015684e-02
6.001000e+00  -5.384305e-01  -7.994501e-02
6.002000e+00  -5.390004e-01  -6.972033e-02
6.003000e+00  -5.393753e-01  -5.948695e-02
6.004000e+00  -5.395553e-01  -4.924902e-02
6.005000e+00  -5.395405e-01  -3.901068e-02
6.006000e+00  -5.393314e-01  -2.877603e-02
6.007000e+00  -5.389283e-01  -1.854917e-02
6.008000e+00  -5.383318e-01  -8.334181e-03
6.009000e+00  -5.375424e-01  1.864884e-03
6.010000e+00  -5.365608e-01  1.204400e-02
6.011000e+00  -5.353878e-01  2.219917e-02
6.012000e+00  -5.340244e-01  3.232642e-02
6.013000e+00  -5.324714e-01  4.242183e-02
6.014000e+00  -5.307301e-01  5.248150e-02
6.015000e+00  -5.288014e-01  6.250157e-02
6.016000e+00  -5.266867e-01  7.247823e-02
6.017000e+00  -5.243873e-01  8.240770e-02
6.018000e+00  -5.219047e-01  9.228626e-02
6.019000e+00  -5.192402e-01  1.021102e-01
6.020000e+00  -5.163956e-01  1.118760e-01
6.021000e+00  -5.133724e-01  1.215799e-01
6.022000e+00  -5.101724e-01  1.312186e-01
6.023000e+00  -5.067975e-01  1.407884e-01
6.024000e+00  -5.032495e-01  1.502861e-01
6.025000e+00  -4.995303e-01  1.597082e-01
6.026000e+00  -4.956420e-01  1.690515e-01
6.027000e+00  -4.915868e-01  1.783127e-01
6.028000e+00  -4.873667e-01  1.874887e-01
6.029000e+00  -4.829839e-01  1.965764e-01
6.030000e+00  -4.784409e-01  2.055728e-01
6.031000e+00  -4.737399e-01  2.144749e-01
6.032000e+00  -4.688833e-01  2.232797e-01
6.033000e+00  -4.638736e-01  2.319846e-01
6.034000e+00  -4.587134e-01  2.405867e-01
6.035000e+00  -4.534050e-01  2.490834e-01
6.036000e+00  -4.479513e-01  2.574721e-01
6.037000e+00  -4.423548e-01  2.657501e-01
6.038000e+00  -4.366181e-01  2.739152e-01
6.039000e+00  -4.307442e-01  2.819649e-01
6.040000e+00  -4.247356e-01  2.898968e-01
6.041000e+00  -4.185953e-01  2.977089e-01
6.042000e+00  -4.123261e-01  3.053989e-01
6.043000e+00  -4.059308e-01  3.129647e-01
6.044000e+00  -3.994124e-01  3.204044e-01
6.045000e+00  -3.927738e-01  3.277160e-01
6.046000e+00  -3.860179e-01  3.348977e-01
6.047000e+00  -3.791477e-01  3.419477e-01
6.048000e+00  -3.721663e-01  3.488644e-01
6.049000e+00  -3.650765e-01  3.556462e-01
6.050000e+00  -3.578816e-01  3.622914e-01
6.051000e+00  -3.505844e-01  3.687987e-01
6.052000e+00  -3.431881e-01  3.751667e-01
6.053000e+00  -3.356957e-01  3.813940e-01
6.054000e+00  -3.281102e-01  3.874795e-01
6.055000e+00  -3.204349e-01  3.934219e-01
6.056000e+00  -3.126726e-01  3.992203e-01
6.057000e+00  -3.048266e-01  4.048735e-01
6.058000e+00  -2.968999e-01  4.103808e-01
6.059000e+00  -2.888955e-01  4.157411e-01
6.060000e+00  -2.808166e-01  4.209537e-01
6.061000e+00  -2.726662e-01  4.260179e-01
6.062000e+00  -2.644473e-01  4.309331e-01
6.063000e+00  -2.561631e-01  4.356986e-01
6.064000e+00  -2.478165e-01  4.403140e-01
6.065000e+00  -2.394106e-01  4.447787e-01
6.066000e+00  -2.309484e-01  4.490925e-01
6.067000e+00  -2.224329e-01  4.532550e-01
6.068000e+00  -2.138671e-01  4.572660e-01
6.069000e+00  -2.052538e-01  4.611252e-01
6.070000e+00  -1.965962e-01  4.648325e-01
6.071000e+00  -1.878970e-01  4.683879e-01
6.072000e+00  -1.791592e-01  4.717913e-01
6.073000e+00  -1.703857e-01  4.750429e-01
6.074000e+00  -1.615793e-01  4.781426e-01
6.075000e+00  -1.527428e-01  4.810907e-01
6.076000e+00  -1.438791e-01  4.838874e-01
6.077000e+00  -1.349909e-01  4.865330e-01
6.078000e+00  -1.260809e-01  4.890277e-01
6.079000e+00  -1.171519e-01  4.913720e-01
6.080000e+00  -1.082066e-01  4.935662e-01
6.081000e+00  -9.924764e-02  4.956108e-01
6.082000e+00  -9.027760e-02  4.975064e-01
6.083000e+00  -8.129909e-02  4.992535e-01
6.084000e+00  -7.231468e-02  5.008527e-01
6.085000e+00  -6.332689e-02  5.023046e-01
6.086000e+00  -5.433822e-02  5.036100e-01
6.087000e+00  -4.535113e-02  5.047696e-01
6.088000e+00  -3.636805e-02  5.057841e-01
6.089000e+00  -2.739135e-02  5.066543e-01
6.090000e+00  -1.842340e-02  5.073811e-01
6.091000e+00  -9.466523e-03  5.079654e-01
6.092000e+00  -5.229915e-04  5.084080e-01
6.093000e+00  8.404944e-03  5.087100e-01
6.094000e+00  1.731507e-02  5.088723e-01
6.095000e+00  2.620522e-02  5.088959e-01
6.096000e+00  3.507326e-02  5.087818e-01
6.097000e+00  4.391707e-02  5.085311e-01
6.098000e+00  5.273461e-02  5.081450e-01
6.099000e+00  6.152385e-02  5.076245e-01
6.100000e+00  7.028279e-02  5.069707e-01
6.101000e+00  7.900949e-02  5.061849e-01
6.102000e+00  8.770204e-02  5.052682e-01
6.103000e+00  9.635855e-02  5.042218e-01
6.104000e+00  1.049772e-01  5.030471e-01
6.105000e+00  1.135561e-01  5.017451e-01
6.106000e+00  1.220937e-01  5.003173e-01
6.107000e+00  1.305880e-01  4.987649e-01
6.108000e+00  1.390375e-01  4.970892e-01
6.109000e+00  1.474405e-01  4.952915e-01
6.110000e+00  1.557953e-01  4.933732e-01
6.111000e+00  1.641004e-01  4.913356e-01
6.112000e+00  1.723543e-01  4.891801e-01
6.113000e+00  1.805553e-01  4.869081e-01
6.114000e+00  1.887021e-01  4.845209e-01
6.115000e+00  1.967932e-01  4.820200e-01
6.116000e+00  2.048272e-01  4.794068e-01
6.117000e+00  2.128028e-01  4.766827e-01
6.118000e+00  2.207185e-01  4.738492e-01
6.119000e+00  2.285730e-01  4.709076e-01
6.120000e+00  2.363652e-01  4.678594e-01
6.121000e+00  2.440938e-01  4.647061e-01
6.122000e+00  2.517575e-01  4.614491e-01
6.123000e+00  2.593552e-01  4.580900e-01
6.124000e+00  2.668858e-01  4.546301e-01
6.125000e+00  2.743481e-01  4.510709e-01
6.126000e+00  2.817410e-01  4.474140e-01
6.127000e+00  2.890636e-01  4.436607e-01
6.128000e+00  2.963148e-01  4.398127e-01
6.129000e+00  3.034936e-01  4.358713e-01
6.130000e+00  3.105991e-01  4.318380e-01
6.131000e+00  3.176303e-01  4.277144e-01
6.132000e+00  3.245863e-01  4.235019e-01
6.133000e+00  3.314663e-01  4.192020e-01
6.134000e+00  3.382694e-01  4.148162e-01
6.135000e+00  3.449949e-01  4.103460e-01
6.136000e+00  3.516418e-01  4.057929e-01
6.137000e+00  3.582096e-01  4.011583e-01
6.138000e+00  3.646974e-01  3.964437e-01
6.139000e+00  3.711045e-01  3.916506e-01
6.140000e+00  3.774303e-01  3.867805e-01
6.141000e+00  3.836740e-01  3.818349e-01
6.142000e+00  3.898352e-01  3.768151e-01
6.143000e+00  3.959131e-01  3.717228e-01
6.144000e+00  4.019072e-01  3.665593e-01
6.145000e+00  4.078170e-01  3.613261e-01
6.146000e+00  4.136418e-01  3.560247e-01
6.147000e+00  4.193813e-01  3.506564e-01
6.148000e+00  4.250348e-01  3.452229e-01
6.149000e+00  4.306020e-01  3.397254e-01
6.150000e+00  4.360824e-01  3.341654e-01
6.151000e+00  4.414755e-01  3.285443e-01
6.152000e+00  4.467810e-01  3.228636e-01
6.153000e+00  4.519986e-01  3.171247e-01
6.154000e+00  4.571278e-01  3.113289e-01
6.155000e+00  4.621682e-01  3.054778e-01
6.156000e+00  4.671197e-01  2.995726e-01
6.157000e+00  4.719819e-01  2.936148e-01
6.158000e+00  4.767544e-01  2.876057e-01
6.159000e+00  4.814371e-01  2.815468e-01
6.160000e+00  4.860297e-01  2.754393e-01
6.161000e+00  4.905320e-01  2.692847e-01
6.162000e+00  4.949438e-01  2.630843e-01
6.163000e+00  4.992649e-01  2.568394e-01
6.164000e+00  5.034951e-01  2.505515e-01
6.165000e+00  5.076342e-01  2.442217e-01
6.166000e+00  5.116822e-01  2.378515e-01
6.167000e+00  5.156389e-01  2.314421e-01
6.168000e+00  5.195042e-01  2.249949e-01
6.169000e+00  5.232780e-01  2.185111e-01
6.170000e+00  5.269602e-01  2.119921e-01
6.171000e+00  5.305508e-01  2.054392e-01
6.172000e+00  5.340498e-01  1.988535e-01
6.173000e+00  5.374571e-01  1.922364e-01
6.174000e+00  5.407726e-01  1.855892e-01
6.175000e+00  5.439965e-01  1.789130e-01
6.176000e+00  5.471287e-01  1.722091e-01
6.177000e+00  5.501692e-01  1.654789e-01
6.178000e+00  5.531181e-01  1.587234e-01
6.179000e+00  5.559754e-01  1.519439e-01
6.180000e+00  5.587413e-01  1.451416e-01
6.181000e+00  5.614157e-01  1.383177e-01
6.182000e+00  5.639988e-01  1.314735e-01
6.183000e+00  5.664907e-01  1.246100e-01
6.184000e+00  5.688916e-01  1.177285e-01
6.185000e+00  5.712014e-01  1.108301e-01
6.186000e+00  5.734204e-01  1.039161e-01
6.187000e+00  5.755488e-01  9.698745e-02
6.188000e+00  5.775867e-01  9.004541e-02
6.189000e+00  5.795343e-01  8.309110e-02
6.190000e+00  5.813917e-01  7.612563e-02
6.191000e+00  5.831592e-01  6.915013e-02
6.192000e+00  5.848370e-01  6.216571e-02
6.193000e+00  5.864253e-01  5.517345e-02
6.194000e+00  5.879243e-01  4.817446e-02
6.195000e+00  5.893343e-01  4.116982e-02
6.196000e+00  5.906555e-01  3.416061e-02
6.197000e+00  5.918882e-01  2.714789e-02
6.198000e+00  5.930327e-01  2.013271e-02
6.199000e+00  5.940892e-01  1.311613e-02
6.200000e+00  5.950580e-01  6.099200e-03
6.201000e+00  5.959395e-01  -9.170603e-04
6.202000e+00  5.967340e-01  -7.931622e-03
6.203000e+00  5.974417e-01  -1.494347e-02
6.204000e+00  5.980630e-01  -2.195159e-02
6.205000e+00  5.985983e-01  -2.895499e-02
6.206000e+00  5.990478e-01  -3.595268e-02
6.207000e+00  5.994120e-01  -4.294366e-02
6.208000e+00  5.996911e-01  -4.992698e-02
6.209000e+00  5.998857e-01  -5.690166e-02
6.210000e+00  5.999960e-01  -6.386674e-02
6.211000e+00  6.000224e-01  -7.082127e-02
6.212000e+00  5.999654e-01  -7.776432e-02
6.213000e+00  5.998254e-01  -8.469495e-02
6.214000e+00  5.996027e-01  -9.161223e-02
6.215000e+00  5.992978e-01  -9.851526e-02
6.216000e+00  5.989112e-01  -1.054031e-01
6.217000e+00  5.984431e-01  -1.122749e-01
6.218000e+00  5.978942e-01  -1.191297e-01
6.219000e+00  5.972649e-01  -1.259667e-01
6.220000e+00  5.965555e-01  -1.327850e-01
6.221000e+00  5.957666e-01  -1.395837e-01
6.222000e+00  5.948987e-01  -1.463619e-01
6.223000e+00  5.939522e-01  -1.531189e-01
6.224000e+00  5.929277e-01  -1.598537e-01
6.225000e+00  5.918256e-01  -1.665656e-01
6.226000e+00  5.906463e-01  -1.732537e-01
6.227000e+00  5.893906e-01  -1.799172e-01
6.228000e+00  5.880588e-01  -1.865553e-01
6.229000e+00  5.866514e-01  -1.931672e-01
6.230000e+00  5.851691e-01  -1.997520e-01
6.231000e+00  5.836123e-01  -2.063092e-01
6.232000e+00  5.819815e-01  -2.128377e-01
6.233000e+00  5.802774e-01  -2.193370e-01
6.234000e+00  5.785005e-01  -2.258061e-01
6.235000e+00  5.766514e-01  -2.322445e-01
6.236000e+00  5.747305e-01  -2.386513e-01
6.237000e+00  5.727386e-01  -2.450259e-01
6.238000e+00  5.706761e-01  -2.513674e-01
6.239000e+00  5.685436e-01  -2.576752e-01
6.240000e+00  5.663418e-01  -2.639486e-01
6.241000e+00  5.640713e-01  -2.701869e-01
6.242000e+00  5.617326e-01  -2.763893e-01
6.243000e+00  5.593263e-01  -2.825553e-01
6.244000e+00  5.568531e-01  -2.886842e-01
6.245000e+00  5.543136e-01  -2.947752e-01
6.246000e+00  5.517083e-01  -3.008278e-01
6.247000e+00  5.490380e-01  -3.068413e-01
6.248000e+00  5.463033e-01  -3.128151e-01
6.249000e+00  5.435048e-01  -3.187485e-01
6.250000e+00  5.406431e-01  -3.246409e-01
6.251000e+00  5.377189e-01  -3.304917e-01
6.252000e+00  5.347329e-01  -3.363004e-01
6.253000e+00  5.316856e-01  -3.420663e-01
6.254000e+00  5.285779e-01  -3.477889e-01
6.255000e+00  5.254102e-01  -3.534676e-01
6.256000e+00  5.221834e-01  -3.591017e-01
6.257000e+00  5.188981e-01  -3.646909e-01
6.258000e+00  5.155549e-01  -3.702345e-01
6.259000e+00  5.121546e-01  -3.757320e-01
6.260000e+00  5.086978e-01  -3.811829e-01
6.261000e+00  5.051852e-01  -3.865866e-01
6.262000e+00  5.016175e-01  -3.919427e-01
6.263000e+00  4.979955e-01  -3.972507e-01
6.264000e+00  4.943198e-01  -4.025100e-01
6.265000e+00  4.905911e-01  -4.077202e-01
6.266000e+00  4.868102e-01  -4.128809e-01
6.267000e+00  4.829777e-01  -4.179915e-01
6.268000e+00  4.790943e-01  -4.230517e-01
6.269000e+00  4.751609e-01  -4.280609e-01
6.270000e+00  4.711781e-01  -4.330188e-01
6.271000e+00  4.671466e-01  -4.379249e-01
6.272000e+00  4.630671e-01  -4.427789e-01
6.273000e+00  4.589405e-01  -4.475803e-01
6.274000e+00  4.547674e-01  -4.523287e-01
6.275000e+00  4.505485e-01  -4.570237e-01
6.276000e+00  4.462847e-01  -4.616651e-01
6.277000e+00  4.419766e-01  -4.662523e-01
6.278000e+00  4.376250e-01  -4.707851e-01
6.279000e+00  4.332306e-01  -4.752632e-01
6.280000e+00  4.287941e-01  -4.796861e-01
6.281000e+00  4.243164e-01  -4.840536e-01
6.282000e+00  4.197982e-01  -4.883653e-01
6.283000e+00  4.152402e-01  -4.926210e-01
6.284000e+00  4.106432e-01  -4.968203e-01
6.285000e+00  4.060079e-01  -5.009630e-01
6.286000e+00  4.013351e-01  -5.050488e-01
6.287000e+00  3.966256e-01  -5.090775e-01
6.288000e+00  3.918800e-01  -5.130486e-01
6.289000e+00  3.870993e-01  -5.169622e-01
6.290000e+00  3.822840e-01  -5.208178e-01
6.291000e+00  3.774350e-01  -5.246152e-01
6.292000e+00  3.725531e-01  -5.283544e-01
6.293000e+00  3.676389e-01  -5.320349e-01
6.294000e+00  3.626934e-01  -5.356567e-01
6.295000e+00  3.577171e-01  -5.392196e-01
6.296000e+00  3.527110e-01  -5.427233e-01
6.297000e+00  3.476757e-01  -5.461678e-01
6.298000e+00  3.426120e-01  -5.495528e-01
6.299000e+00  3.375207e-01  -5.528783e-01
6.300000e+00  3.324025e-01  -5.561440e-01
