! Created with skrf 1.8.0 (http://scikit-rf.org).
# Hz S RI R 50.0 
!freq ReS11 ImS11
5300000000.0 0.8581235432012587 -0.0953422282124803
5302500000.0 0.8563512877794752 -0.11128359827402813
5305000000.0 0.854323315405608 -0.12704732255868365
5307500000.0 0.852051278006723 -0.14264037212668043
5310000000.0 0.8495451619519839 -0.15807028564672415
5312500000.0 0.8468132786454131 -0.17334495091685734
5315000000.0 0.8438622823726458 -0.18847239054551868
5317500000.0 0.8406972142380524 -0.20346055516042016
5320000000.0 0.8373215706259517 -0.21831712727724484
5322500000.0 0.8337373942587987 -0.23304933867964586
5325000000.0 0.8299453856109695 -0.24766380384432118
5327500000.0 0.8259450321726516 -0.262166371596118
5330000000.0 0.8217347528442979 -0.27656199680737803
5332500000.0 0.8173120545824716 -0.29085463356795527
5335000000.0 0.8126736983083789 -0.30504715085612255
5337500000.0 0.8078158710345998 -0.3191412713421074
5340000000.0 0.8027343611586119 -0.333137533560307
5342500000.0 0.7974247339141188 -0.34703527730063705
5345000000.0 0.7918825040583769 -0.36083265169849876
5347500000.0 0.7861033030051707 -0.37452664515062134
5350000000.0 0.7800830377825043 -0.3881131358565442
5352500000.0 0.7738180394008851 -0.4015869614851336
5355000000.0 0.7673051984562045 -0.41494200619680643
5357500000.0 0.7605420860572208 -0.42817130301737066
5360000000.0 0.7535270584574112 -0.4412671493620018
5362500000.0 0.746259344079566 -0.45422123334892334
5365000000.0 0.7387391119434694 -0.4670247684249181
5367500000.0 0.730967520838972 -0.4796686337481695
5370000000.0 0.7229467489219495 -0.49214351774069237
5372500000.0 0.7146800037445005 -0.5044400622312395
5375000000.0 0.706171513058777 -0.5165490046599079
5377500000.0 0.6974264970495085 -0.5284613159072126
5380000000.0 0.6884511229499369 -0.5401683314397575
5382500000.0 0.6792524432738093 -0.5516618736312052
5385000000.0 0.6698383191485298 -0.5629343633157782
5387500000.0 0.660217330456959 -0.5739789188605049
5390000000.0 0.6503986746846567 -0.5847894412956388
5392500000.0 0.640392056522398 -0.5953606843166234
5395000000.0 0.6302075703883 -0.6056883082604592
5397500000.0 0.6198555781088104 -0.615768917458028
5400000000.0 0.6093465840315676 -0.6256000806679423
5402500000.0 0.5986911098369293 -0.6351803345996352
5405000000.0 0.5878995712683825 -0.6445091708292393
5407500000.0 0.5769821589179498 -0.6535870066959136
5410000000.0 0.5659487250823433 -0.6624151410332504
5412500000.0 0.5548086785528982 -0.6709956958364081
5415000000.0 0.543570889020053 -0.6793315451860199
5417500000.0 0.5322436025659751 -0.6874262329421639
5420000000.0 0.5208343694909204 -0.6952838808819007
5422500000.0 0.5093499854750382 -0.7029090890814242
5425000000.0 0.49779644682193164 -0.7103068304360887
5427500000.0 0.4861789202690069 -0.7174823412689405
5430000000.0 0.47450172758645964 -0.7244410100001987
5432500000.0 0.4627683449270728 -0.7311882658375712
5435000000.0 0.45098141663649394 -0.7377294694015539
5437500000.0 0.4391427829930467 -0.744069807122624
5440000000.0 0.42725352112080023 -0.7502141911411198
5442500000.0 0.4153139981125997 -0.7561671663080577
5445000000.0 0.4033239352146667 -0.7619328257294045
5447500000.0 0.391282481762488 -0.7675147361202739
5450000000.0 0.37918829742191795 -0.7729158740433683
5452500000.0 0.36703964118038074 -0.7781385739003691
5455000000.0 0.3548344654522037 -0.7831844883301659
5457500000.0 0.342570513609575 -0.7880545614472909
5460000000.0 0.33024541922683537 -0.7927490151309511
5462500000.0 0.31785680532999055 -0.7972673483535188
5465000000.0 0.3054023819752802 -0.8016083493204823
5467500000.0 0.29288004053884653 -0.8057701199845058
5470000000.0 0.2802879431827916 -0.8097501122981996
5472500000.0 0.26762460606958177 -0.8135451753853479
5475000000.0 0.2548889750245399 -0.8171516126422492
5477500000.0 0.24208049249339203 -0.8205652476307516
5480000000.0 0.22919915480492353 -0.8237814974956573
5482500000.0 0.2162455589265426 -0.8267954525323705
5485000000.0 0.20322093808861658 -0.8296019604475782
5487500000.0 0.19012718584955865 -0.8321957137981097
5490000000.0 0.17696686837480038 -0.8345713390602186
5492500000.0 0.16374322490464405 -0.8367234857756148
5495000000.0 0.15046015658702552 -0.8386469142395679
5497500000.0 0.13712220404645373 -0.8403365802415492
5500000000.0 0.1237345142475481 -0.8417877154380615
5502500000.0 0.11030279738779233 -0.8429959020299783
5505000000.0 0.09683327471553532 -0.8439571405308351
5507500000.0 0.08333261831431882 -0.8446679095460242
5510000000.0 0.06980788402034453 -0.8451252166337057
5512500000.0 0.05626643874394721 -0.8453266394830875
5515000000.0 0.04271588354791645 -0.8452703568223956
5517500000.0 0.029163973892466635 -0.8449551686534872
5520000000.0 0.015618538489306314 -0.8443805055998044
5522500000.0 0.002087398214490694 -0.8435464273456837
5525000000.0 -0.011421713488507046 -0.8424536103345722
5527500000.0 -0.02490122732621636 -0.8411033250782299
5530000000.0 -0.03834381067009969 -0.8394974036050363
5532500000.0 -0.051742434633958126 -0.8376381977407157
5535000000.0 -0.065090434586989 -0.8355285290655787
5537500000.0 -0.07838156310228671 -0.833171631526978
5540000000.0 -0.09161003448206037 -0.8305710878017526
5542500000.0 -0.10477056015605526 -0.8277307605991433
5545000000.0 -0.11785837441420588 -0.8246547201688822
5547500000.0 -0.13086925010630002 -0.8213471693309459
5550000000.0 -0.14379950411753792 -0.8178123673720817
5552500000.0 -0.15664599260529022 -0.8140545541599606
5555000000.0 -0.1694060961572089 -0.8100778758086731
5557500000.0 -0.18207769520085398 -0.8058863131899507
5560000000.0 -0.1946591361568625 -0.8014836145242815
5562500000.0 -0.20714918898025697 -0.7968732332058861
5565000000.0 -0.21954699687385892 -0.7920582719172806
5567500000.0 -0.23185201908313038 -0.78704143397466
5570000000.0 -0.2440639677908444 -0.7818249827163896
5572500000.0 -0.2561827402210025 -0.7764107096062524
5575000000.0 -0.2682083471339085 -0.7707999115724835
5577500000.0 -0.28014083894654906 -0.7649933779460302
5580000000.0 -0.29198023074429946 -0.7589913871992151
5582500000.0 -0.3037264274612791 -0.7527937135213945
5585000000.0 -0.31537915049661575 -0.7463996431044108
5587500000.0 -0.3269378670039353 -0.7398079998495006
5590000000.0 -0.3384017230409247 -0.7330171800518289
5592500000.0 -0.3497694816964237 -0.7260251954712386
5595000000.0 -0.3610394672252647 -0.7188297240600358
5597500000.0 -0.3722095161167219 -0.7114281674936657
5600000000.0 -0.38327693590360684 -0.7038177145388305
5602500000.0 -0.3942384723865841 -0.6959954091988414
5605000000.0 -0.40509028580491413 -0.6879582224985655
5607500000.0 -0.4158279363327285 -0.6797031267127436
5610000000.0 -0.4264463791209842 -0.6712271708032195
5612500000.0 -0.4369399689429926 -0.6625275558123725
5615000000.0 -0.447302474337346 -0.6536017089636931
5617500000.0 -0.4575271009798189 -0.6444473552446384
5620000000.0 -0.4676065238576945 -0.6350625852923205
5622500000.0 -0.4775329276686228 -0.6254459184681991
5625000000.0 -0.48729805472426785 -0.6155963600930784
5627500000.0 -0.49689325950932145 -0.6055134519164281
5630000000.0 -0.5063095689306543 -0.5951973150137263
5632500000.0 -0.5155377471923933 -0.5846486844390819
5635000000.0 -0.5245683641515002 -0.5738689351065082
5637500000.0 -0.5333918659470621 -0.5628600985290351
5640000000.0 -0.5419986466561147 -0.5516248702074857
5642500000.0 -0.5503791197096987 -0.5401666076282283
5645000000.0 -0.5585237878062778 -0.528489318997495
5647500000.0 -0.5664233100848026 -0.5165976430071824
5650000000.0 -0.5740685653667265 -0.5044968200897959
5652500000.0 -0.581450710344432 -0.4921926557755629
5655000000.0 -0.5885612316812711 -0.4796914769107479
5657500000.0 -0.5953919910949047 -0.4670000816292558
5660000000.0 -0.6019352626185219 -0.4541256840885007
5662500000.0 -0.6081837613721378 -0.4410758550826106
5665000000.0 -0.6141306633262446 -0.4278584597295482
5667500000.0 -0.6197696156997861 -0.414481593493037
5670000000.0 -0.6250947378018131 -0.4009535178429806
5672500000.0 -0.6301006122978461 -0.38728259687996647
5675000000.0 -0.634782267055737 -0.3734772362490655
5677500000.0 -0.6391351478988216 -0.35954582564577353
5680000000.0 -0.643155082763365 -0.34549668617334306
5682500000.0 -0.6468382379207728 -0.33133802374546006
5685000000.0 -0.6501810670795357 -0.31707788964335337
5687500000.0 -0.6531802543255842 -0.30272414923236324
5690000000.0 -0.6558326519902211 -0.28828445972117966
5692500000.0 -0.658135214649997 -0.2737662577096944
5695000000.0 -0.660084930561146 -0.25917675711992566
5697500000.0 -0.6616787519108741 -0.24452295794086462
5700000000.0 -0.6629135253273907 -0.22981166604532716
5702500000.0 -0.6637859241292505 -0.21504952415609932
5705000000.0 -0.6642923838112429 -0.20024305385360774
5707500000.0 -0.6644290422582921 -0.1853987083297686
5710000000.0 -0.6641916861503591 -0.17052293540525412
5712500000.0 -0.6635757049700134 -0.15562225014368955
5715000000.0 -0.6625760539507367 -0.1407033162175759
5717500000.0 -0.6611872272085005 -0.12577303501114775
5720000000.0 -0.659403242182955 -0.1108386412866665
5722500000.0 -0.6572176363786904 -0.09590780409531822
5725000000.0 -0.6546234772433673 -0.08098873148537171
5727500000.0 -0.6516133858496933 -0.0660902774492117
5730000000.0 -0.6481795748647442 -0.05122204946091145
5732500000.0 -0.6443139010953364 -0.03639451488782861
5735000000.0 -0.6400079326947383 -0.021619104515012418
5737500000.0 -0.635253030907255 -0.006908311401663288
5740000000.0 -0.630040446015789 0.007724216705959993
5742500000.0 -0.6243614269470638 0.022263593149375323
5745000000.0 -0.6182073437828587 0.03669361800799606
5747500000.0 -0.6115698222265337 0.050996715230796366
5750000000.0 -0.6044408888858857 0.06515388275013498
5752500000.0 -0.5968131260584554 0.07914465695119874
5755000000.0 -0.5886798345471069 0.09294709272255017
5757500000.0 -0.580035202894206 0.1065377601476002
5760000000.0 -0.5708744813040572 0.1198917587162411
5762500000.0 -0.5611941584275861 0.1329827497424928
5765000000.0 -0.5509921391110552 0.1457830074723134
5767500000.0 -0.5402679211633323 0.15826348915783825
5770000000.0 -0.5290227691736256 0.17039392416422683
5772500000.0 -0.517259883413326 0.18214292196646173
5775000000.0 -0.5049845618812399 0.19347809868837926
5777500000.0 -0.49220435359939935 0.20436622163848236
5780000000.0 -0.47892920133497296 0.21477337110932354
5782500000.0 -0.46517157201127396 0.22466511853113402
5785000000.0 -0.4509465731739329 0.23400671990879623
5787500000.0 -0.43627205399558044 0.24276332332466352
5790000000.0 -0.4211686894305506 0.250900189159718
5792500000.0 -0.4056600462672604 0.25838292157247406
5795000000.0 -0.38977262996844725 0.2651777096784634
5797500000.0 -0.3735359113343934 0.27125157679333833
5800000000.0 -0.35698233217073355 0.2765726360379433
5802500000.0 -0.3401472892877405 0.2811103505534822
5805000000.0 -0.3230690963003188 0.2848357965374075
5807500000.0 -0.3057889228372034 0.28772192728399787
5810000000.0 -0.2883507109016741 0.2897438363962812
5812500000.0 -0.27080106825578865 0.29087901832569474
5815000000.0 -0.25318913882479444 0.29110762439111765
5817500000.0 -0.23556645023860245 0.29041271242779715
5820000000.0 -0.2179867387450471 0.2887804882177525
5822500000.0 -0.20050575184469957 0.28620053685537356
5825000000.0 -0.18318102911262008 0.282666042204219
5827500000.0 -0.16607166178941468 0.27817399260327946
5830000000.0 -0.14923803184422949 0.2727253709830283
5832500000.0 -0.13274153133903288 0.26632532755451044
5835000000.0 -0.11664426305685714 0.25898333323921363
5837500000.0 -0.1010087235002304 0.25071331201565933
5840000000.0 -0.08589746952003066 0.2415337503726264
5842500000.0 -0.07137277000094681 0.23146778208126298
5845000000.0 -0.057496244208615946 0.2205432465325817
5847500000.0 -0.044328488594837887 0.20879271893631388
5850000000.0 -0.03192869406032172 0.19625351074528793
5852500000.0 -0.020354255888495775 0.18296763876128705
5855000000.0 -0.009660378785479245 0.16898176149631264
5857500000.0 0.00010032031163347245 0.15434708151253057
5860000000.0 0.008878208768330469 0.1391192126474146
5862500000.0 0.01662703101489146 0.12335801125087885
5865000000.0 0.023304294210242917 0.10712737082151767
5867500000.0 0.02887164328383076 0.09049497972946684
5870000000.0 0.033295221658710177 0.07353204205571723
5872500000.0 0.036546013817721844 0.056312961959970535
5875000000.0 0.03860016577301236 0.03891499240919895
5877500000.0 0.03943927944500563 0.021417849553821047
5880000000.0 0.039050676958566025 0.0039032945212354665
5882500000.0 0.037427630928219525 -0.013545315098517939
5885000000.0 0.034569556937672934 -0.03084350128221508
5887500000.0 0.030482164626332235 -0.04790616580467244
5890000000.0 0.0251775640808809 -0.06464811084548476
5892500000.0 0.018674324594700368 -0.08098457565389228
5895000000.0 0.010997483301858485 -0.0968317844967349
5897500000.0 0.0021785017126401923 -0.11210750070477704
5900000000.0 -0.007744831231149983 -0.12673158128459058
5902500000.0 -0.018728550308022573 -0.14062652628867706
5905000000.0 -0.030722719395094453 -0.15371801694902382
5907500000.0 -0.043671690343753115 -0.16593543648776454
5910000000.0 -0.05751441384955427 -0.1772123675322773
5912500000.0 -0.07218480003000176 -0.1874870601867625
5915000000.0 -0.08761212564863902 -0.19670286505045892
5917500000.0 -0.10372148417565874 -0.2048086258248188
5920000000.0 -0.12043427417255954 -0.21175902661457413
5922500000.0 -0.13766872084847603 -0.21751488959350895
5925000000.0 -0.15534042507705179 -0.22204341936590707
5927500000.0 -0.17336293369859193 -0.2253183910950829
5930000000.0 -0.1916483245766187 -0.2273202802764318
5932500000.0 -0.210107799640615 -0.22803633288585654
5935000000.0 -0.22865227903346746 -0.22746057551599125
5937500000.0 -0.24719298949765506 -0.22559376600233147
5940000000.0 -0.2656420402765741 -0.22244328591838114
5942500000.0 -0.28391298007355964 -0.21802297716356223
5945000000.0 -0.3019213289938411 -0.2123529256605799
5947500000.0 -0.31958507988214585 -0.20545919590338244
5950000000.0 -0.3368251640497501 -0.19737352073755038
5952500000.0 -0.3535658770420635 -0.18813295129983987
5955000000.0 -0.36973526081583113 -0.17777947248345538
5957500000.0 -0.38526543945547836 -0.16635958962405564
5960000000.0 -0.4000929063420634 -0.15392389231630013
5962500000.0 -0.4141587614790283 -0.1405266013713166
5965000000.0 -0.4274088984579153 -0.12622510491596853
5967500000.0 -0.43979414129941524 -0.11107948952052765
5970000000.0 -0.45127033211623846 -0.09515207203042057
5972500000.0 -0.4617983712014298 -0.07850693748099365
5975000000.0 -0.4713442117400605 -0.06120948810180741
5977500000.0 -0.479878811864852 -0.04332600798261743
5980000000.0 -0.4873780472227088 -0.024923247488915057
5982500000.0 -0.4938225875859622 -0.006068030993650634
5985000000.0 -0.4991977413282022 0.013173109053208404
5987500000.0 -0.5034932717911044 0.03273426925290752
5990000000.0 -0.5067031896982827 0.05255048167822397
5992500000.0 -0.5088255258284401 0.07255798822915069
5995000000.0 -0.5098620881487735 0.09269448209939664
5997500000.0 -0.5098182075360281 0.1128993160354704
6000000000.0 -0.508702476083759 0.13311367754537132
6002500000.0 -0.5065264818168798 0.15328073165334508
6005000000.0 -0.5033045434155333 0.173345732196046
6007500000.0 -0.4990534482965397 0.19325610301300064
6010000000.0 -0.4937921971189385 0.21296149069730366
6012500000.0 -0.48754175747668127 0.2324137908414072
6015000000.0 -0.48032482922232617 0.2515671499380091
6017500000.0 -0.4721656235361486 0.2703779452768517
6020000000.0 -0.4630896575202654 0.288804745317987
6022500000.0 -0.45312356576158774 0.3068082531205077
6025000000.0 -0.4422949299750265 0.3243512354658922
6027500000.0 -0.430632127512125 0.341398440339537
6030000000.0 -0.41816419920425413 0.357916505423209
6032500000.0 -0.40492073670530365 0.3738738602101369
6035000000.0 -0.39093178920968896 0.389240624283174
6037500000.0 -0.37622778914904365 0.4039885041989545
6040000000.0 -0.36083949621659295 0.4180906912996158
6042500000.0 -0.3447979588344598 0.4315217626297301
6045000000.0 -0.32813449196584077 0.4442575869739831
6047500000.0 -0.3108806699834566 0.45627523785149904
6050000000.0 -0.2930683331380447 0.4675529151091103
6052500000.0 -0.2747296060263638 0.47806987655065075
6055000000.0 -0.2558969263387529 0.4878063808240943
6057500000.0 -0.23660308207031222 0.4967436425668744
6060000000.0 -0.21688125530893168 0.5048638005829105
6062500000.0 -0.19676507066659427 0.5121498995960971
6065000000.0 -0.17628864639719388 0.5185858858961326
6067500000.0 -0.1554866462448437 0.5241566169656188
6070000000.0 -0.13439433008998197 0.5288478849547099
6072500000.0 -0.1130476015052662 0.5326464536531123
6075000000.0 -0.09148305039983674 0.5355401084005065
6077500000.0 -0.06973798901570674 0.5375177181776702
6080000000.0 -0.04785047964467454 0.5385693089326995
6082500000.0 -0.025859352555637982 0.5386861470216318
6085000000.0 -0.003804212759196758 0.5378608314813182
6087500000.0 0.018274565611182878 0.5360873937059489
6090000000.0 0.04033585835783264 0.5333614029679179
6092500000.0 0.06233782459693037 0.5296800761097855
6095000000.0 0.0842379551485411 0.5250423896374093
6097500000.0 0.10599313643599782 0.5194491923658575
6100000000.0 0.12755973018799216 0.5129033167098545
6102500000.0 0.1488936690277951 0.505409686669782
6105000000.0 0.1699505678190617 0.49697542054365484
6107500000.0 0.1906858504197168 0.48760992639493506
6110000000.0 0.21105489127535165 0.47732498832672793
6112500000.0 0.23101317106221358 0.4661348416552298
6115000000.0 0.25051644537030054 0.45405623513962634
6117500000.0 0.2695209251995015 0.44110847851318424
6120000000.0 0.2879834678291954 0.4273134736711282
6122500000.0 0.30586177641620427 0.4126957280055549
6125000000.0 0.3231146064794684 0.39728234853719574
6127500000.0 0.3397019772458106 0.38110301567711186
6130000000.0 0.3555853856620534 0.36418993566002544
6132500000.0 0.3707280207277642 0.3465777709229417
6135000000.0 0.3850949756744408 0.32830354795803723
6137500000.0 0.39865345541314995 0.30940654244594995
6140000000.0 0.4113729765983883 0.2899281417725754
6142500000.0 0.4232255576149188 0.2699116853461562
6145000000.0 0.4341858957889638 0.2494022834599522
6147500000.0 0.44423152916065445 0.22844661578286835
6150000000.0 0.4533429802321938 0.20709271090364664
6152500000.0 0.46150387922917485 0.18538970869643423
6155000000.0 0.4687010645827194 0.1633876076109336
6157500000.0 0.47492465855749394 0.14113699931339818
6160000000.0 0.4801681162159739 0.11868879340586884
6162500000.0 0.48442824622079494 0.09609393522599395
6165000000.0 0.4877052023320231 0.07340311996790878
6167500000.0 0.49000244485107125 0.05066650656111141
6170000000.0 0.49132667169273897 0.027933434890673237
6172500000.0 0.491687719224344 0.005252150032254043
6175000000.0 0.49109843348955795 -0.017330462795259637
6177500000.0 0.48957451292453597 -0.039769128893746605
6180000000.0 0.4871343241664655 -0.06202041680657595
6182500000.0 0.4837986930389093 -0.08404294971182595
6185000000.0 0.47959067326380767 -0.10579759235039075
6187500000.0 0.4745352958859339 -0.1272476106653424
6190000000.0 0.46865930279117396 -0.14835880170795626
6192500000.0 0.4619908680453715 -0.16909959180363746
6195000000.0 0.45455931106634484 -0.18944110146032603
6197500000.0 0.4463948058596059 -0.20935717603489118
6200000000.0 0.437528090692418 -0.22882438173867897
6202500000.0 0.42799018264507616 -0.24782196715092544
6205000000.0 0.4178121014603202 -0.2663317910072514
6207500000.0 0.4070246070092994 -0.284338217626156
6210000000.0 0.3956579545072583 -0.30182798191810467
6212500000.0 0.3837416713448816 -0.31879002647749827
6215000000.0 0.37130435905843523 -0.335215313774698
6217500000.0 0.35837352354697233 -0.351096616934259
6220000000.0 0.3449754361677343 -0.3664282929955801
6222500000.0 0.3311350278084247 -0.3812060428955565
6225000000.0 0.3168758174577448 -0.39542666268290216
6227500000.0 0.30221987618433155 -0.409087790663632
6230000000.0 0.28718782679881405 -0.4221876552848702
6232500000.0 0.2717988788270758 -0.4347248285856146
6235000000.0 0.25607089777506015 -0.44669798997804694
6237500000.0 0.24002050702823086 -0.45810570497289926
6240000000.0 0.22366322011383305 -0.46894622322706947
6242500000.0 0.20701360047030587 -0.4792172999772474
6245000000.0 0.19008544532771643 -0.4889160445315378
6247500000.0 0.17289198981348117 -0.4980387990288701
6250000000.0 0.15544612696860716 -0.5065810501503353
6252500000.0 0.13776063899959295 -0.5145373758826671
6255000000.0 0.11984843480570839 -0.5219014288036447
6257500000.0 0.10172278861916395 -0.5286659566877586
6260000000.0 0.08339757447994493 -0.5348228605312249
6262500000.0 0.06488749124381792 -0.5403632893767539
6265000000.0 0.04620827289378711 -0.5452777705933027
6267500000.0 0.027376879093946066 -0.5495563735458759
6270000000.0 0.008411661191494208 -0.5531889038878632
6272500000.0 -0.010667500764212192 -0.5561651250370647
6275000000.0 -0.029839093959309303 -0.5584750027692467
6277500000.0 -0.04907990513724348 -0.5601089682932199
6280000000.0 -0.06836499210233841 -0.5610581946729006
6282500000.0 -0.08766769649975077 -0.5613148810453283
6285000000.0 -0.1069596991996325 -0.5608725387636593
6287500000.0 -0.1262111187946794 -0.5597262733775162
6290000000.0 -0.1453906528681813 -0.5578730562615065
6292500000.0 -0.16446576081384223 -0.5553119797209676
6295000000.0 -0.18340288611364453 -0.5520444895464859
6297500000.0 -0.2021677151181528 -0.5480745892573322
6300000000.0 -0.2207254685483031 -0.5434090106668701
