! Created with skrf 1.8.0 (http://scikit-rf.org).
# Hz S RI R 50.0 
!freq ReS11 ImS11
5300000000.0 0.7073813713784227 -0.5315742420646048
5302500000.0 0.6983672321769886 -0.5440117225849523
5305000000.0 0.689047504436143 -0.556227421050338
5307500000.0 0.6794343179544161 -0.5682003830934573
5310000000.0 0.6695425570477247 -0.5799114775531908
5312500000.0 0.6593895162324865 -0.5913437729955998
5315000000.0 0.6489945073275688 -0.6024828518232989
5317500000.0 0.6383784287563878 -0.6133170560835703
5320000000.0 0.6275633085003063 -0.6238376609010191
5322500000.0 0.6165718325175732 -0.6340389733469648
5325000000.0 0.6054268704902398 -0.6439183564625682
5327500000.0 0.5941510104998224 -0.6534761800180496
5330000000.0 0.5827661136733513 -0.66271570136564
5332500000.0 0.5712928990106395 -0.6716428813796377
5335000000.0 0.5597505675319009 -0.6802661419284818
5337500000.0 0.5481564736129334 -0.6885960725592436
5340000000.0 0.5365258499467253 -0.6966450950652989
5342500000.0 0.5248715910325468 -0.7044270953383323
5345000000.0 0.5132040984946524 -0.7119570323672779
5347500000.0 0.5015311899191444 -0.7192505344424476
5350000000.0 0.48985807131248177 -0.7263234925607914
5352500000.0 0.4781873717692167 -0.7331916607268025
5355000000.0 0.4665192375223679 -0.739870272322338
5357500000.0 0.4548514812673258 -0.7463736810067199
5360000000.0 0.44317978152001536 -0.7527150337319001
5362500000.0 0.43149792581019814 -0.7589059824495276
5365000000.0 0.41979809073032714 -0.7649564399742348
5367500000.0 0.40807115126698185 -0.7708743842837986
5370000000.0 0.3963070114355497 -0.7766657143078629
5372500000.0 0.38449494801852374 -0.7823341590102246
5375000000.0 0.37262395916818825 -0.7878812403307904
5377500000.0 0.36068310976841156 -0.7933062893433238
5380000000.0 0.348661865747996 -0.7986065138272507
5382500000.0 0.33655040998971825 -0.8037771143627214
5385000000.0 0.32433993307087927 -0.8088114450579447
5387500000.0 0.3120228927908917 -0.813701214120694
5390000000.0 0.2995932372719568 -0.8184367187079282
5392500000.0 0.2870465873451712 -0.8230071078405272
5395000000.0 0.2743803749366803 -0.8274006666670075
5397500000.0 0.26159393522762964 -0.8316051150088541
5400000000.0 0.24868855145526414 -0.8356079129286005
5402500000.0 0.2356674523286416 -0.8393965660339314
5405000000.0 0.22253576312601386 -0.8429589233679133
5407500000.0 0.2093004125981198 -0.8462834610342692
5410000000.0 0.1959699987981214 -0.8493595451610751
5412500000.0 0.1825546178703033 -0.8521776684060479
5415000000.0 0.1690656606346246 -0.854729654936787
5417500000.0 0.15551558248248062 -0.8570088296620233
5420000000.0 0.14191765263440684 -0.8590101484240592
5422500000.0 0.12828568918956998 -0.860730286861977
5425000000.0 0.11463378661215792 -0.8621676866960364
5427500000.0 0.10097604234667981 -0.8633225592357949
5430000000.0 0.08732628913454833 -0.8641968469521565
5432500000.0 0.07369783932404081 -0.8647941449482587
5435000000.0 0.0601032470358985 -0.8651195850916407
5437500000.0 0.04655409348123725 -0.8651796864072482
5440000000.0 0.03306080004740463 -0.8649821760578026
5442500000.0 0.01963247299009252 -0.8645357858400907
5445000000.0 0.006276782720680562 -0.8638500295906278
5447500000.0 -0.007000120219733428 -0.8629349672149588
5450000000.0 -0.020193651329720376 -0.8618009612293421
5452500000.0 -0.03330080021249408 -0.860458431731941
5455000000.0 -0.04632010118823584 -0.8589176156093401
5457500000.0 -0.05925156796283151 -0.8571883355402421
5460000000.0 -0.07209659465854597 -0.8552797839936014
5462500000.0 -0.08485782623175321 -0.8532003269460683
5465000000.0 -0.09753900193355462 -0.8509573314783678
5467500000.0 -0.11014477599948799 -0.8485570207682269
5470000000.0 -0.12268052017800808 -0.8460043592952899
5472500000.0 -0.13515211301864186 -0.8433029703278736
5475000000.0 -0.14756572103688817 -0.8404550869892251
5477500000.0 -0.15992757695373389 -0.8374615374187224
5480000000.0 -0.1722437601751383 -0.8343217637666939
5482500000.0 -0.1845199845331743 -0.8310338740058748
5485000000.0 -0.19676139806214957 -0.8275947248222282
5487500000.0 -0.20897239923589261 -0.8240000331762504
5490000000.0 -0.22115647365439783 -0.8202445135162029
5492500000.0 -0.23331605464972174 -0.8163220370878049
5495000000.0 -0.24545241069254042 -0.8122258093317132
5497500000.0 -0.25756556183473805 -0.8079485609990631
5500000000.0 -0.2696542267338508 -0.8034827483542607
5502500000.0 -0.28171580108579747 -0.7988207576783639
5505000000.0 -0.2937463675597404 -0.7939551092393934
5507500000.0 -0.3057407365984153 -0.7888786559591909
5510000000.0 -0.3176925167358812 -0.7835847721788489
5512500000.0 -0.3295942124086128 -0.7780675282024473
5515000000.0 -0.3414373466110561 -0.7723218466760673
5517500000.0 -0.35321260518812947 -0.7663436373264774
5520000000.0 -0.3649099990784982 -0.7601299071307926
5522500000.0 -0.37651904043465917 -0.7536788436011266
5525000000.0 -0.38802892825950763 -0.7469898695313841
5527500000.0 -0.3994287390192459 -0.7400636682507734
5530000000.0 -0.41070761762472463 -0.7329021791419084
5532500000.0 -0.42185496421685736 -0.7255085638931313
5535000000.0 -0.4328606123454315 -0.7178871446468588
5537500000.0 -0.4437149943887104 -0.7100433158609061
5540000000.0 -0.45440929041560196 -0.7019834323026314
5542500000.0 -0.46493555713280843 -0.6937146761315136
5545000000.0 -0.47528683407333 -0.6852449064830466
5547500000.0 -0.48545722475590497 -0.6765824953355746
5550000000.0 -0.4954419511626586 -0.6677361537151051
5552500000.0 -0.5052373805277021 -0.6587147524668207
5555000000.0 -0.5148410240874425 -0.6495271418944907
5557500000.0 -0.5242515080980104 -0.6401819745407193
5560000000.0 -0.5334685180612849 -0.6306875352559017
5562500000.0 -0.5424927177051975 -0.6210515824863373
5565000000.0 -0.5513256448231721 -0.6112812044102628
5567500000.0 -0.5599695865810626 -0.6013826931726733
5570000000.0 -0.5684274373382144 -0.5913614400255849
5572500000.0 -0.5767025423943284 -0.5812218536813417
5575000000.0 -0.5847985313601084 -0.5709673036431507
5577500000.0 -0.5927191450520201 -0.5606000897019818
5580000000.0 -0.6004680599279083 -0.5501214381941006
5582500000.0 -0.608048714108927 -0.5395315250106969
5585000000.0 -0.615464138974595 -0.528829524753193
5587500000.0 -0.6227168001738979 -0.518013684845798
5590000000.0 -0.6298084516688808 -0.5070814228631657
5592500000.0 -0.6367400061230858 -0.4960294448162063
5595000000.0 -0.6435114245714866 -0.4848538816736242
5597500000.0 -0.6501216278681831 -0.4735504409911338
5600000000.0 -0.6565684319123751 -0.46211457018231183
5602500000.0 -0.6628485081114077 -0.4505416277034603
5605000000.0 -0.6689573699634116 -0.4388270582456203
5607500000.0 -0.674889386043517 -0.42696656793472537
5610000000.0 -0.6806378190692879 -0.4149562955398024
5612500000.0 -0.6861948901173579 -0.4027929757792403
5615000000.0 -0.6915518664772939 -0.3904740909966828
5617500000.0 -0.696699171074992 -0.3779980077474743
5620000000.0 -0.7016265108896951 -0.36536409518832164
5622500000.0 -0.7063230213385154 -0.3525728225903191
5625000000.0 -0.7107774232218798 -0.33962583378838523
5627500000.0 -0.714978188522363 -0.3265259969273183
5630000000.0 -0.7189137111356948 -0.31327742845358736
5632500000.0 -0.7225724784924324 -0.29988549091765715
5635000000.0 -0.7259432400047575 -0.28635676477970684
5637500000.0 -0.7290151683461525 -0.27269899503659895
5640000000.0 -0.7317780097405338 -0.25892101409406215
5642500000.0 -0.7342222196971576 -0.24503264288162893
5645000000.0 -0.7363390809722182 -0.23104457273397414
5647500000.0 -0.7381208009582505 -0.2169682310297948
5650000000.0 -0.7395605861882881 -0.20281563397693564
5652500000.0 -0.7406526921810718 -0.18859923025143038
5655000000.0 -0.7413924474337258 -0.17433173943283534
5657500000.0 -0.7417762509758588 -0.16002598932277895
5660000000.0 -0.741801543520163 -0.14569475628749504
5662500000.0 -0.7414667528659695 -0.1313506127269088
5665000000.0 -0.7407712148206258 -0.11700578564467058
5667500000.0 -0.7397150714867098 -0.10267203007962579
5670000000.0 -0.73829914930943 -0.08836052086334684
5672500000.0 -0.7365248197776811 -0.0740817657983515
5675000000.0 -0.7343938461147357 -0.05984554291407899
5677500000.0 -0.7319082196723062 -0.04566086396116325
5680000000.0 -0.7290699900477228 -0.03153596575910012
5682500000.0 -0.7258810931724522 -0.017478330426436286
5685000000.0 -0.7223431817664216 -0.00349473490809404
5687500000.0 -0.718457462613394 0.01040867041881021
5690000000.0 -0.7142245450854692 0.0242262549199794
5692500000.0 -0.709644305229011 0.03795277415499288
5695000000.0 -0.7047157695201968 0.05158321171969963
5697500000.0 -0.6994370221076668 0.06511259918750519
5700000000.0 -0.6938051389861603 0.07853581740890174
5702500000.0 -0.6878161520930952 0.09184738292951333
5705000000.0 -0.6814650457969211 0.1050412237243781
5707500000.0 -0.6747457876600743 0.11811044881036244
5710000000.0 -0.6676513947206182 0.1310471165799733
5712500000.0 -0.6601740358575142 0.14384200688935997
5715000000.0 -0.6523051700978961 0.1564844020257355
5717500000.0 -0.6440357200059366 0.16896188166929987
5720000000.0 -0.6353562785773762 0.1812601368505396
5722500000.0 -0.6262573473675738 0.19336280768641947
5725000000.0 -0.6167296029208091 0.2052513493610215
5727500000.0 -0.6067641879593244 0.2169049304051211
5730000000.0 -0.5963530232476454 0.22830036683314692
5732500000.0 -0.5854891355831866 0.2394120951271249
5735000000.0 -0.574166996988821 0.250212186429764
5737500000.0 -0.5623828699050396 0.2606704036376198
5740000000.0 -0.5501351530026342 0.2707543023884426
5742500000.0 -0.5374247221637725 0.280429376230698
5745000000.0 -0.5242552612074034 0.28965924556577427
5747500000.0 -0.5106335770588961 0.2984058892811124
5750000000.0 -0.49656989427618586 0.3066299173593786
5752500000.0 -0.48207812413352247 0.314290882168855
5755000000.0 -0.4671761038173649 0.3213476256221103
5757500000.0 -0.45188580169212966 0.32775865894155976
5760000000.0 -0.4362334850310919 0.333482571395124
5762500000.0 -0.4202498470658173 0.33847846406280363
5765000000.0 -0.40397009067021084 0.3427064044633688
5767500000.0 -0.3874339664513276 0.3461278977029172
5770000000.0 -0.37068576345688703 0.34870636969585855
5772500000.0 -0.3537742511207024 0.3504076579433373
5775000000.0 -0.3367525714475867 0.3512005053222435
5777500000.0 -0.319678080785956 0.3510570523276278
5780000000.0 -0.30261214085060273 0.34995332320965855
5782500000.0 -0.2856198589454683 0.3478697014419604
5785000000.0 -0.2687697776026895 0.3447913899407968
5787500000.0 -0.2521335141115897 0.34070885141626
5790000000.0 -0.23578535067115033 0.33561822417219517
5792500000.0 -0.21980177617599075 0.3295217085790027
5795000000.0 -0.2042609809550644 0.32242791932487447
5797500000.0 -0.18924230613788537 0.3143521984117816
5800000000.0 -0.17482564974121878 0.3053168837133772
5802500000.0 -0.16109083206181374 0.29535152776675194
5805000000.0 -0.14811692353818964 0.2844930613469969
5807500000.0 -0.13598153891438736 0.27278589629548927
5810000000.0 -0.12476010230169138 0.2602819620639289
5812500000.0 -0.11452508858845604 0.24704067052483694
5815000000.0 -0.10534524758284176 0.23312880381391107
5817500000.0 -0.09728481827159532 0.21862032033863457
5820000000.0 -0.09040274161637703 0.20359607463938284
5822500000.0 -0.08475188135449428 0.18814344754602655
5825000000.0 -0.08037826328483848 0.17235588405519545
5827500000.0 -0.07732034445555369 0.15633233757136572
5830000000.0 -0.07560832447596606 0.14017662061098404
5832500000.0 -0.07526351179632411 0.12399666375536599
5835000000.0 -0.07629775817753799 0.10790368653210584
5837500000.0 -0.07871297465412586 0.09201128597304001
5840000000.0 -0.0825007420255527 0.07643445078928748
5842500000.0 -0.08764202825144389 0.06128851135814685
5845000000.0 -0.09410702404329875 0.04668803795805343
5847500000.0 -0.10185510642363735 0.032745701830496216
5850000000.0 -0.11083493806535184 0.019571115599567274
5852500000.0 -0.12098470785233251 0.007269671246574702
5855000000.0 -0.1322325153626057 -0.0040586048752711155
5857500000.0 -0.14449689893409118 -0.014320159676291508
5860000000.0 -0.1576875037185775 -0.023428963017028417
5862500000.0 -0.17170588276764603 -0.03130747914697781
5865000000.0 -0.18644642084334137 -0.03788754051436098
5867500000.0 -0.20179736743456908 -0.04311110610685038
5870000000.0 -0.21764196251470386 -0.04693088862079607
5872500000.0 -0.23385963601996337 -0.0493108374370461
5875000000.0 -0.25032725997147914 -0.050226467523112266
5877500000.0 -0.26692043069605115 -0.049665027878345425
5880000000.0 -0.2835147577877422 -0.04762550686707276
5882500000.0 -0.29998713632958096 -0.04411847560729913
5885000000.0 -0.3162169794672796 -0.03916577435861291
5887500000.0 -0.33208738966855034 -0.03280005044347213
5890000000.0 -0.3474862488550053 -0.02506415951369304
5892500000.0 -0.3623072099781862 -0.01601044482667593
5895000000.0 -0.3764505754225722 -0.005699911536195821
5897500000.0 -0.3898240507401801 0.005798685232795356
5900000000.0 -0.4023433655289028 0.018409818601160453
5902500000.0 -0.4139327566338283 0.03205221398096717
5905000000.0 -0.4245253121596733 0.0466398985428834
5907500000.0 -0.4340631779238214 0.06208325630766939
5910000000.0 -0.4424976308626136 0.07829007016179486
5912500000.0 -0.44978902645524604 0.09516653360758646
5915000000.0 -0.45590662939739035 0.11261821689494532
5917500000.0 -0.4608283385093605 0.1305509742555158
5920000000.0 -0.46454031818938896 0.14887178118311795
5922500000.0 -0.46703654962697055 0.16748949299176946
5925000000.0 -0.46831831549588315 0.18631551816157854
5927500000.0 -0.46839363198357203 0.20526440218685615
5930000000.0 -0.46727664182494016 0.22425431971857201
5932500000.0 -0.4649869815406577 0.24320747470456983
5935000000.0 -0.4615491353819589 0.26205040994634277
5937500000.0 -0.4569917876042953 0.2807142289954771
5940000000.0 -0.4513471836775214 0.29913473459719236
5942500000.0 -0.44465050993318744 0.31725248895472724
5945000000.0 -0.4369392999872276 0.3350128019443995
5947500000.0 -0.42825287509148735 0.3523656540682077
5950000000.0 -0.4186318243858671 0.3692655614061988
5952500000.0 -0.40811752986602257 0.38567139014011126
5955000000.0 -0.39675173976509737 0.40154612838214365
5957500000.0 -0.38457619298345147 0.41685662307541876
5960000000.0 -0.37163229619637156 0.43157328965171216
5962500000.0 -0.35796085433047553 0.4456698019535086
5965000000.0 -0.34360185422895684 0.45912276966359694
5967500000.0 -0.3285943005249486 0.4719114101486476
5970000000.0 -0.31297610201165765 0.4840172212235365
5972500000.0 -0.2967840061387844 0.4954236608885247
5975000000.0 -0.28005357867576497 0.506115839590616
5977500000.0 -0.2628192250654717 0.5160802300190591
5980000000.0 -0.2451142495464488 0.5253043988703657
5982500000.0 -0.22697094774858578 0.5337767644163574
5985000000.0 -0.20842072816737792 0.5414863830857702
5987500000.0 -0.18949425769568354 0.5484227676326778
5990000000.0 -0.17022162623935835 0.5545757388204594
5992500000.0 -0.15063252536512997 0.5599353119048077
5995000000.0 -0.13075643592304706 0.5644916185617835
5997500000.0 -0.11062281965172871 0.5682348642837629
6000000000.0 -0.09026130990883774 0.571155320665602
6002500000.0 -0.06970189686789763 0.5732433514322907
6005000000.0 -0.04897510278253757 0.5744894705247301
6007500000.0 -0.028112143232960265 0.574884430068226
6010000000.0 -0.007145070632760988 0.5744193356041152
6012500000.0 0.013893103320924565 0.5730857855727527
6015000000.0 0.034968309131632805 0.5708760316996766
6017500000.0 0.056045347332119085 0.5677831566575452
6020000000.0 0.07708784458014735 0.5638012651562645
6022500000.0 0.09805823944316401 0.5589256844522691
6025000000.0 0.11891779878538246 0.55315317016473
6027500000.0 0.13962666516209812 0.5464821132401625
6030000000.0 0.16014393512053451 0.538912743915751
6032500000.0 0.1804277678108339 0.530447328593509
6035000000.0 0.2004355228271771 0.5210903556502551
6037500000.0 0.2201239257320048 0.5108487063699864
6040000000.0 0.23944925926934513 0.49973180739391254
6042500000.0 0.25836757784811165 0.4877517613376142
6045000000.0 0.27683494247787743 0.4749234525228907
6047500000.0 0.294807672969743 0.4612646251134175
6050000000.0 0.3122426138781306 0.4467959313267668
6052500000.0 0.32909741036036955 0.43154094781971564
6055000000.0 0.34533078987326127 0.415526158808442
6057500000.0 0.36090284541725876 0.3987809049868363
6060000000.0 0.37577531588378127 0.3813372978435072
6062500000.0 0.38991185896761116 0.36323009954596897
6065000000.0 0.40327831208098736 0.3444965691538131
6067500000.0 0.41584293675558415 0.3251762765347762
6070000000.0 0.42757664214998287 0.30531088597875394
6072500000.0 0.4384531834993229 0.28494391212451825
6075000000.0 0.44844933165361606 0.2641204514198407
6077500000.0 0.457545010255783 0.2428868929124351
6080000000.0 0.4657233976075509 0.2212906127023677
6082500000.0 0.4729709908596457 0.19937965685860695
6085000000.0 0.47927763083476616 0.17720241799636172
6087500000.0 0.4846364865382184 0.1548073110125728
6090000000.0 0.48904399921875996 0.13224245366660947
6092500000.0 0.49249978669402744 0.10955535776093973
6095000000.0 0.49500650953146014 0.08679263660987352
6097500000.0 0.4965697015543625 0.06399973427615789
6100000000.0 0.4971975679990994 0.04122068170370701
6102500000.0 0.49690075545859175 0.01849788437848244
6105000000.0 0.4956920984827414 -0.004128054481963935
6107500000.0 0.4935863483443979 -0.026618471967921373
6110000000.0 0.4905998899962403 -0.04893674237169604
6112500000.0 0.48675045362035596 -0.07104833151880503
6115000000.0 0.4820568273910739 -0.09292080814182677
6117500000.0 0.476538578122208 -0.11452381296287838
6120000000.0 0.47021578634445055 -0.1358289872208274
6122500000.0 0.46310880205655075 -0.15680986342843342
6125000000.0 0.4552380269191386 -0.17744172214158221
6127500000.0 0.44662372802165534 -0.197701419440391
6130000000.0 0.43728588756581604 -0.21756719063097602
6132500000.0 0.42724409189195706 -0.23701843635432704
6135000000.0 0.4165174622500044 -0.2560354978140865
6137500000.0 0.4051246286112407 -0.2745994281907963
6140000000.0 0.3930837466577837 -0.29269176748528924
6142500000.0 0.38041255690359654 -0.3102943280208102
6145000000.0 0.3671284837247247 -0.32738899762862356
6147500000.0 0.3532487709365291 -0.34395756714929543
6150000000.0 0.33879064948243315 -0.35998158830607546
6152500000.0 0.3237715318201631 -0.37544226726046637
6155000000.0 0.30820922673368006 -0.3903203982577675
6157500000.0 0.2921221675873648 -0.4045963407304213
6160000000.0 0.2755296464935491 -0.4182500420732563
6162500000.0 0.25845204650500897 -0.4312611070613458
6165000000.0 0.24091106378449065 -0.4436089135783042
6167500000.0 0.22292991175416282 -0.45527277299072755
6170000000.0 0.20453349949629926 -0.4662321321767537
6172500000.0 0.18574857716200016 -0.47646681292848575
6175000000.0 0.16660384184428248 -0.48595728323452914
6177500000.0 0.14712999827445528 -0.49468495384610567
6180000000.0 0.12735976978914268 -0.5026324925730175
6182500000.0 0.10732785626932728 -0.5097841479761345
6185000000.0 0.08707083714009299 -0.5161260735512314
6187500000.0 0.06662701900938008 -0.5216466431592384
6190000000.0 0.04603622907434912 -0.5263367483685761
6192500000.0 0.02533955699168653 -0.5301900685503337
6195000000.0 0.004579049449284647 -0.5332033050080243
6197500000.0 -0.01620263685970207 -0.5353763711283445
6200000000.0 -0.03696261681605177 -0.5367125314935283
6202500000.0 -0.05765818478622514 -0.537218484077238
6205000000.0 -0.07824723967591245 -0.5369043810244571
6207500000.0 -0.0986887172038454 -0.5357837850533855
6210000000.0 -0.11894301900985572 -0.5338735601699849
6212500000.0 -0.138972428031348 -0.5311936971050014
6215000000.0 -0.15874149969271903 -0.5277670756181353
6217500000.0 -0.1782174188547368 -0.5236191675134174
6220000000.0 -0.1973703131508598 -0.5187776858230644
6222500000.0 -0.216173514277043 -0.5132721870987172
6225000000.0 -0.23460375997211214 -0.5071336350567799
6227500000.0 -0.2526413307916086 -0.5003939349246252
6230000000.0 -0.2702701173024327 -0.4930854486984507
6232500000.0 -0.2874776149630795 -0.48524050213301395
6235000000.0 -0.3042548456636167 -0.47689089462641715
6237500000.0 -0.32059620663606636 -0.46806742323569006
6240000000.0 -0.3364992491670429 -0.45879943186534994
6242500000.0 -0.3519643912129929 -0.44911439621956156
6245000000.0 -0.366994569595905 -0.4390375544151115
6247500000.0 -0.38159483891418366 -0.428591592234421
6250000000.0 -0.39577192561019436 -0.4177963908781346
6252500000.0 -0.4095337467691011 -0.40666884377864254
6255000000.0 -0.42288890416287184 -0.39522274758510645
6257500000.0 -0.43584616478045374 -0.38346877085373166
6260000000.0 -0.44841393958683534 -0.3714145023017663
6262500000.0 -0.46059977251614526 -0.35906457873868064
6265000000.0 -0.47240985171952304 -0.3464208910034535
6267500000.0 -0.48384855484731215 -0.3334828644438255
6270000000.0 -0.4949180396451121 -0.3202478087056848
6272500000.0 -0.5056178903812073 -0.3067113298938823
6275000000.0 -0.5159448296034157 -0.29286779655629297
6277500000.0 -0.5258925034533666 -0.2787108494717119
6280000000.0 -0.5354513472605471 -0.26423394392768007
6282500000.0 -0.5446085364189668 -0.2494309120982047
6285000000.0 -0.5533480256432389 -0.2342965323118702
6287500000.0 -0.5616506776473295 -0.21882709147393029
6290000000.0 -0.5694944801325624 -0.2030209267028451
6292500000.0 -0.5768548477630475 -0.1868789323855169
6295000000.0 -0.5837050036079655 -0.17040501936076696
6297500000.0 -0.5900164324011793 -0.15360651381191914
6300000000.0 -0.59575939597695 -0.1364944846765928
