! Created with skrf 1.8.0 (http://scikit-rf.org).
# Hz S RI R 50.0 
!freq ReS11 ImS11
5300000000.0 0.7986865358374458 -0.3382585067555452
5302500000.0 0.7932492995430767 -0.35194373666476403
5305000000.0 0.787622963424087 -0.36553967360794076
5307500000.0 0.7817996751913028 -0.3790491804729354
5310000000.0 0.775771177443422 -0.39247335018187407
5312500000.0 0.7695290636649742 -0.4058115055956505
5315000000.0 0.7630650273485736 -0.41906123285804053
5317500000.0 0.7563711000992435 -0.43221844645648755
5320000000.0 0.7494398748990599 -0.4452774837941192
5322500000.0 0.7422647110814301 -0.45823122663551835
5325000000.0 0.7348399179792577 -0.47107124641280845
5327500000.0 0.7271609146638233 -0.4837879700608708
5330000000.0 0.7192243636718075 -0.49637086279580617
5332500000.0 0.7110282771224986 -0.5088086240598952
5335000000.0 0.7025720941437759 -0.5210893927314795
5337500000.0 0.6938567290499043 -0.5332009576409962
5340000000.0 0.6848845902360564 -0.5451309694430656
5342500000.0 0.6756595702667041 -0.5568671499700394
5345000000.0 0.6661870081288087 -0.5683974953319831
5347500000.0 0.6564736250895279 -0.5797104692286834
5350000000.0 0.6465274360320779 -0.5907951831979333
5352500000.0 0.6363576385376476 -0.6016415608353701
5355000000.0 0.6259744823276737 -0.612240483379279
5357500000.0 0.6153891219737643 -0.6225839144515306
5360000000.0 0.6046134560180912 -0.6326650021765208
5362500000.0 0.5936599558205753 -0.6424781573542918
5365000000.0 0.5825414875580031 -0.6520191068339447
5367500000.0 0.5712711308443263 -0.6612849217091662
5370000000.0 0.5598619974195371 -0.6702740204308532
5372500000.0 0.5483270532687554 -0.678986147391999
5375000000.0 0.5366789473871573 -0.687422327979865
5377500000.0 0.5249298502026893 -0.6955848015009172
5380000000.0 0.5130913044139546 -0.7034769337577458
5382500000.0 0.5011740907003936 -0.7111031113884294
5385000000.0 0.4891881104238701 -0.7184686203610289
5387500000.0 0.4771422870718739 -0.7255795112464278
5390000000.0 0.4650444878016279 -0.7324424540671249
5392500000.0 0.4529014660392154 -0.739064585637488
5395000000.0 0.44071882567670034 -0.7454533523713208
5397500000.0 0.4285010070015988 -0.7516163515361554
5400000000.0 0.41625129409373557 -0.7575611738830972
5402500000.0 0.40397184304251543 -0.7632952504782774
5405000000.0 0.39166372997848076 -0.7688257064114575
5407500000.0 0.3793270175830504 -0.7741592238636149
5410000000.0 0.3669608384438145 -0.7793019167828885
5412500000.0 0.3545634933640884 -0.7842592191534178
5415000000.0 0.3421325625172614 -0.7890357885493446
5417500000.0 0.3296650271615148 -0.7936354263534264
5420000000.0 0.31715739949976396 -0.798061015691188
5422500000.0 0.3046058581841556 -0.8023144777946299
5425000000.0 0.29200638692373365 -0.806396747168666
5427500000.0 0.27935491365763687 -0.8103077655954087
5430000000.0 0.2666474478025784 -0.8140464946807356
5432500000.0 0.2538802131711052 -0.8176109463297281
5435000000.0 0.24104977428297458 -0.8209982302370744
5437500000.0 0.2281531539539387 -0.8242046171997672
5440000000.0 0.21518794024049837 -0.8272256168062595
5442500000.0 0.20215238104188454 -0.830056067832321
5445000000.0 0.18904546490860297 -0.832690239482017
5447500000.0 0.17586698687473518 -0.8351219414551696
5450000000.0 0.16261759841542314 -0.8373446407025156
5452500000.0 0.14929884092602005 -0.8393515826478946
5455000000.0 0.1359131624208851 -0.8411359146142213
5457500000.0 0.1224639174521627 -0.842690809187162
5460000000.0 0.10895535054765003 -0.844009585286888
5462500000.0 0.09539256375638676 -0.84508582479328
5465000000.0 0.08178146916650192 -0.84591348268206
5467500000.0 0.06812872751708804 -0.8464869887759306
5470000000.0 0.05444167426014272 -0.8468013393936965
5472500000.0 0.04072823463595663 -0.8468521773876171
5475000000.0 0.02699682950204348 -0.8466358592915096
5477500000.0 0.01325627379924803 -0.8461495085542279
5480000000.0 -0.0004843303543556475 -0.8453910541013472
5482500000.0 -0.014215703880855907 -0.8443592537461795
5485000000.0 -0.027928502178980644 -0.8430537022547848
5487500000.0 -0.04161342569487016 -0.841474824153371
5490000000.0 -0.0552613275872325 -0.8396238516443771
5492500000.0 -0.06886331652951284 -0.8375027882651939
5495000000.0 -0.08241085280802132 -0.8351143591755954
5497500000.0 -0.0958958360238605 -0.8324619491922957
5500000000.0 -0.10931068288409472 -0.8295495298971821
5502500000.0 -0.12264839376967834 -0.8263815773269209
5505000000.0 -0.13590260699110712 -0.8229629819020998
5507500000.0 -0.14906763988188892 -0.81929895237225
5510000000.0 -0.1621385161307339 -0.8153949156373342
5512500000.0 -0.17511097901124598 -0.8112564143552544
5515000000.0 -0.1879814904269177 -0.8068890042593849
5517500000.0 -0.20074721594637024 -0.8022981530895142
5520000000.0 -0.21340599625295303 -0.7974891429857776
5522500000.0 -0.22595630567076938 -0.7924669781094473
5525000000.0 -0.23839719865189735 -0.787236299138956
5527500000.0 -0.25072824531293564 -0.7818013061472296
5530000000.0 -0.2629494572907682 -0.7761656911996144
5532500000.0 -0.27506120534434414 -0.7703325818245331
5535000000.0 -0.28706413025926913 -0.7643044963042376
5537500000.0 -0.2989590487138791 -0.7580833115146735
5540000000.0 -0.3107468558370091 -0.7516702438156755
5542500000.0 -0.32242842622946793 -0.7450658432584879
5545000000.0 -0.33400451523177643 -0.7382700011418075
5547500000.0 -0.3454756622009291 -0.7312819707133861
5550000000.0 -0.35684209750949236 -0.7241004005855564
5552500000.0 -0.3681036549016805 -0.7167233802138082
5555000000.0 -0.379259690735296 -0.709148496580943
5557500000.0 -0.39030901150728514 -0.7013729010385169
5560000000.0 -0.4012498109057734 -0.6933933850859116
5562500000.0 -0.4120796174566156 -0.6852064637173265
5565000000.0 -0.42279525363917814 -0.6768084648414944
5567500000.0 -0.4333928071386479 -0.6681956231797205
5570000000.0 -0.44386761468346797 -0.6593641769764181
5572500000.0 -0.4542142586902052 -0.6503104658146561
5575000000.0 -0.46442657670848136 -0.6410310278171903
5577500000.0 -0.4744976834289874 -0.6315226945322528
5580000000.0 -0.4844200047923206 -0.621782681852322
5582500000.0 -0.4941853235195868 -0.6118086753924101
5585000000.0 -0.503784835180579 -0.6015989088614819
5587500000.0 -0.5132092137266092 -0.5911522340938021
5590000000.0 -0.5224486852452204 -0.5804681815648002
5592500000.0 -0.5314931085467979 -0.5695470103954906
5595000000.0 -0.5403320610713265 -0.5583897470468698
5597500000.0 -0.5489549285089806 -0.5469982121187855
5600000000.0 -0.5573509964634942 -0.5353750348910175
5602500000.0 -0.5655095424529567 -0.5235236554752425
5605000000.0 -0.5734199265398314 -0.5114483146798985
5607500000.0 -0.581071678910834 -0.49915403192168245
5610000000.0 -0.5884545827868297 -0.4866465717438204
5612500000.0 -0.5955587511327266 -0.47393239971701595
5615000000.0 -0.6023746957551687 -0.4610186287016664
5617500000.0 -0.6088933875199414 -0.4479129566345207
5620000000.0 -0.6151063065885568 -0.43462359716696725
5622500000.0 -0.6210054817615274 -0.42115920462243056
5625000000.0 -0.6265835182208532 -0.4075287948546415
5627500000.0 -0.6318336131829119 -0.3937416636743296
5630000000.0 -0.6367495592009185 -0.37980730456884476
5632500000.0 -0.6413257350900804 -0.36573532746517945
5635000000.0 -0.6455570846839516 -0.3515353802824692
5637500000.0 -0.6494390838637623 -0.3372170749850891
5640000000.0 -0.6529676965296657 -0.32278991978212557
5642500000.0 -0.6561393204000858 -0.30826325902557516
5645000000.0 -0.6589507237294503 -0.29364622223802983
5647500000.0 -0.6613989742220598 -0.27894768355432914
5650000000.0 -0.6634813615877614 -0.26417623269196316
5652500000.0 -0.6651953153309743 -0.24934015837454637
5655000000.0 -0.666538319485833 -0.23444744492517172
5657500000.0 -0.6675078261050502 -0.21950578252353245
5660000000.0 -0.6681011693767968 -0.20452259138712625
5662500000.0 -0.668315482281226 -0.18950505989506533
5665000000.0 -0.668147617705469 -0.17446019642672075
5667500000.0 -0.6675940759124056 -0.15939489444102764
5670000000.0 -0.6666509402043791 -0.14431601007808267
5672500000.0 -0.6653138225385467 -0.12923045132793046
5675000000.0 -0.6635778207366123 -0.11414527758469027
5677500000.0 -0.6614374887895182 -0.09906780819136776
5680000000.0 -0.6588868215889327 -0.08400573838592224
5682500000.0 -0.6559192552242464 -0.06896726088444595
5685000000.0 -0.6525276837687836 -0.05396119118717228
5687500000.0 -0.6487044932450933 -0.038997094569291284
5690000000.0 -0.6444416132097455 -0.024085412623717745
5692500000.0 -0.6397305861368672 -0.009237587159686911
5695000000.0 -0.6345626545106583 0.005533820769821102
5697500000.0 -0.6289288652644501 0.020215018936257732
5700000000.0 -0.6228201909322115 0.03479088128650665
5702500000.0 -0.616227666611832 0.04924485669360766
5705000000.0 -0.6091425415828783 0.06355889112016283
5707500000.0 -0.6015564441789203 0.07771336507215183
5710000000.0 -0.5934615582900283 0.09168704805648595
5712500000.0 -0.5848508096687784 0.10545707156388441
5715000000.0 -0.575718060035896 0.11899892188426074
5717500000.0 -0.5660583068328596 0.1322864538269952
5720000000.0 -0.5558678863503701 0.1452919261683629
5722500000.0 -0.545144677874946 0.15798605938725097
5725000000.0 -0.5338883064425659 0.17033811598191365
5727500000.0 -0.5221003417674537 0.18231600339082635
5730000000.0 -0.509784490926138 0.1938863992728327
5732500000.0 -0.49694678241999063 0.20501489864106728
5735000000.0 -0.48359573931161554 0.2156661820951773
5737500000.0 -0.46974253922987685 0.2258042041604264
5740000000.0 -0.45540115916103313 0.2353924005241499
5742500000.0 -0.44058850308708136 0.24439391276123454
5745000000.0 -0.42532451069282906 0.25277182896322886
5747500000.0 -0.409632245536493 0.2604894385314512
5750000000.0 -0.39353796126204177 0.26751049926277665
5752500000.0 -0.37707114462004737 0.27379951474853376
5755000000.0 -0.3602645342554801 0.2793220200200805
5757500000.0 -0.343154114411989 0.2840448733086618
5760000000.0 -0.32577908288997526 0.2879365517398406
5762500000.0 -0.30818179277936614 0.29096744875178854
5765000000.0 -0.29040766766429643 0.2931101710100017
5767500000.0 -0.2725050901667511 0.29433983258556684
5770000000.0 -0.2545252638583886 0.2946343441676282
5772500000.0 -0.2365220487247188 0.2939746950907557
5775000000.0 -0.2185517705152087 0.292345225972149
5777500000.0 -0.2006730044575092 0.28973388977043135
5780000000.0 -0.18294633395568066 0.28613249909565425
5782500000.0 -0.1654340850342912 0.28153695761844594
5785000000.0 -0.14820003743335347 0.27594747344456344
5787500000.0 -0.1313091134073993 0.2693687523402289
5790000000.0 -0.11482704543708144 0.2618101687145789
5792500000.0 -0.09882002422567147 0.25328591229006614
5795000000.0 -0.08335432852881546 0.24381510842279122
5797500000.0 -0.0684959385536037 0.2334219100749914
5800000000.0 -0.054310134864919674 0.2221355594956647
5802500000.0 -0.04086108495216953 0.20999041773648228
5805000000.0 -0.028211419837125367 0.1970259602229293
5807500000.0 -0.016421803342782867 0.18328673672061777
5810000000.0 -0.005550496889622846 0.16882229418732211
5812500000.0 0.0043470770630609085 0.15368706118812367
5815000000.0 0.013218769563122961 0.13794019277751612
5817500000.0 0.02101613408830289 0.12164537502141487
5820000000.0 0.027694846006241648 0.10487058864736086
5822500000.0 0.03321510852605884 0.08768783167236445
5825000000.0 0.037542040920188625 0.07017280126629143
5827500000.0 0.040646044660076465 0.05240453556182118
5830000000.0 0.0425031430240408 0.034465016616187005
5832500000.0 0.043095289709182145 0.016438736261058757
5835000000.0 0.04241064202105295 -0.0015877728640786007
5837500000.0 0.04044379433232758 -0.01952643822024869
5840000000.0 0.03719596770216056 -0.03728817675648973
5842500000.0 0.03267515183590772 -0.05478344873062744
5845000000.0 0.02689619594369423 -0.07192283135181864
5847500000.0 0.019880845526307016 -0.08861760710143034
5850000000.0 0.0116577226758458 -0.10478036110652157
5852500000.0 0.002262248121713955 -0.12032558152224512
5855000000.0 -0.008263496028789372 -0.1351702565432645
5857500000.0 -0.01987096312232319 -0.1492344614222486
5860000000.0 -0.032505397796506116 -0.16244192873977958
5862500000.0 -0.04610614938646272 -0.17472059515464944
5865000000.0 -0.060607040581112895 -0.18600311797351035
5867500000.0 -0.07593678813083704 -0.1962273551198617
5870000000.0 -0.09201947155543018 -0.2053368024535647
5872500000.0 -0.10877504499697109 -0.21328098289140257
5875000000.0 -0.126119886627473 -0.2200157823989841
5877500000.0 -0.1439673793752812 -0.22550372865337012
5880000000.0 -0.16222851619632506 -0.22971420899992112
5882500000.0 -0.18081252270046888 -0.2326236252277897
5885000000.0 -0.19962748966200325 -0.23421548364592348
5887500000.0 -0.21858100780516204 -0.2344804199330725
5890000000.0 -0.23758079726305953 -0.23341615923724499
5892500000.0 -0.2565353242633435 -0.23102741298872795
5895000000.0 -0.275354397889624 -0.22732571484259112
5897500000.0 -0.2939497401970171 -0.222329199059485
5900000000.0 -0.31223552351062495 -0.21606232544744142
5902500000.0 -0.33012886939093133 -0.20855555570512457
5905000000.0 -0.3475503044936218 -0.19984498661410524
5907500000.0 -0.3644241693618267 -0.18997194601404205
5910000000.0 -0.3806789770461862 -0.1789825578531707
5912500000.0 -0.3962477193312488 -0.16692728283415528
5915000000.0 -0.41106811923380365 -0.15386044127319481
5917500000.0 -0.4250828293107458 -0.13983972476228412
5920000000.0 -0.4382395761525996 -0.12492570307775579
5922500000.0 -0.45049125222680203 -0.10918133252339648
5925000000.0 -0.4617959569599893 -0.09267147154438257
5927500000.0 -0.47211698959808746 -0.07546240901379556
5930000000.0 -0.48142279694974044 -0.05762141009050135
5932500000.0 -0.489686879596495 -0.039216283990583155
5935000000.0 -0.49688766053879235 -0.02031497742044212
5937500000.0 -0.5030083205404952 -0.0009851968011159486
5940000000.0 -0.5080366046371454 0.018705938214410564
5942500000.0 -0.511964604388548 0.038692208054305566
5945000000.0 -0.5147885204895909 0.05890857210640384
5947500000.0 -0.5165084103104467 0.07929141248400422
5950000000.0 -0.5171279248263224 0.0997787425566074
5952500000.0 -0.5166540392249233 0.1203103806394724
5955000000.0 -0.5150967812554447 0.1408280897083899
5957500000.0 -0.5124689611141074 0.16127568443124118
5960000000.0 -0.5087859063563105 0.18159910718195413
5962500000.0 -0.5040652049919586 0.20174647502613702
5965000000.0 -0.4983264595660176 0.2216680999385464
5967500000.0 -0.4915910546576009 0.24131648473259956
5970000000.0 -0.48388193985406247 0.26064629735243483
5972500000.0 -0.4752234298776812 0.2796143262993036
5975000000.0 -0.46564102316621603 0.29817942004048453
5977500000.0 -0.45516123983985013 0.31630241328112735
5980000000.0 -0.44381147962956097 0.33394604297153513
5982500000.0 -0.4316198999990915 0.35107485687724754
5985000000.0 -0.418615314367793 0.3676551174593338
5987500000.0 -0.4048271100369718 0.38365470370147353
5990000000.0 -0.39028518513986893 0.3990430133818954
5992500000.0 -0.3750199036777069 0.41379086812441973
5995000000.0 -0.3590620674714419 0.42787042337834297
5997500000.0 -0.3424429036534203 0.44125508527355967
6000000000.0 -0.32519406614506635 0.45391943607911783
6002500000.0 -0.30734764941635057 0.4658391697634501
6005000000.0 -0.2889362127015648 0.4769910389151349
6007500000.0 -0.2699928127519868 0.4873528140383673
6010000000.0 -0.2505510431409135 0.4969032559890433
6012500000.0 -0.23064507809854723 0.505622102069077
6015000000.0 -0.2103097188426521 0.5134900660506914
6017500000.0 -0.18958044038578842 0.520488852161062
6020000000.0 -0.1684934368385243 0.5266011828237629
6022500000.0 -0.1470856632902593 0.531810839728674
6025000000.0 -0.1253948724333342 0.5361027175880936
6027500000.0 -0.10345964419950174 0.5394628897362895
6030000000.0 -0.08131940680058725 0.541878684542754
6032500000.0 -0.05901444770348891 0.5433387714387931
6035000000.0 -0.03658591322360727 0.5438332552024066
6037500000.0 -0.014075795587569405 0.5433537770096031
6040000000.0 0.008473093506280508 0.5418936206415604
6042500000.0 0.031017163612791155 0.5394478221368729
6045000000.0 0.05351210113842935 0.5360132810972773
6047500000.0 0.07591294019865139 0.5315888717936815
6050000000.0 0.09817414891254561 0.5261755521776158
6052500000.0 0.12024973110260846 0.5197764688813677
6055000000.0 0.14209334315406352 0.5123970562885141
6057500000.0 0.16365842557502852 0.5040451277753433
6060000000.0 0.18489834858548482 0.4947309572631662
6062500000.0 0.20576657085213662 0.48446734928211704
6065000000.0 0.22621681027942792 0.47326969582859385
6067500000.0 0.2462032255650709 0.46115601840188736
6070000000.0 0.2656806070339958 0.44814699373063005
6072500000.0 0.2846045750801892 0.434265961846369
6075000000.0 0.3029317843720505 0.4195389153307703
6077500000.0 0.3206201318184845 0.40399446875313916
6080000000.0 0.33762896615061677 0.3876638075269146
6082500000.0 0.3539192968518799 0.3705806156460447
6085000000.0 0.36945400007035667 0.3527809820131344
6087500000.0 0.38419801907381074 0.3343032853405886
6090000000.0 0.39811855676439756 0.31518805788941073
6092500000.0 0.4111852577586029 0.29547782860702015
6095000000.0 0.42337037756160384 0.2752169465304459
6097500000.0 0.43464893642738023 0.2544513856309626
6100000000.0 0.44499885559705116 0.23322853258647383
6102500000.0 0.45440107375135963 0.21159695927193584
6105000000.0 0.46283964169819825 0.189606182052053
6107500000.0 0.47030179354351864 0.16730641023630963
6110000000.0 0.4767779928624315 0.14474828630870273
6112500000.0 0.4822619526945119 0.12198262076700951
6115000000.0 0.48675062853050693 0.09906012459130319
6117500000.0 0.4902441838319191 0.07603114250430627
6120000000.0 0.49274592802528 0.05294539028020983
6122500000.0 0.4942622273322765 0.02985169939887916
6125000000.0 0.49480238922838243 0.006797772326322343
6127500000.0 0.49437852175714253 -0.01617004837514346
6130000000.0 0.4930053693567081 -0.03900699404146269
6132500000.0 0.49070012726934725 -0.06167006414092417
6135000000.0 0.4874822369949805 -0.08411819814293854
6137500000.0 0.48337316560595767 -0.10631242273413626
6140000000.0 0.4783961720541754 -0.12821597246443245
6142500000.0 0.4725760638645393 -0.14979438232291756
6145000000.0 0.46593894781345646 -0.17101555119861692
6147500000.0 0.45851197833155877 -0.19184977566814154
6150000000.0 0.45032310744139376 -0.21226975405904988
6152500000.0 0.4414008400400501 -0.23225056125557947
6155000000.0 0.43177399826237994 -0.25176959523126424
6157500000.0 0.4214714985129209 -0.27080649679860647
6160000000.0 0.41052214453483543 -0.28934304455105947
6162500000.0 0.39895443959744836 -0.3073630274236212
6165000000.0 0.38679642053358315 -0.32485209770846624
6167500000.0 0.3740755159513819 -0.34179760772018897
6170000000.0 0.3608184304908603 -0.35818843360499864
6172500000.0 0.3470510565003101 -0.37401479002260407
6175000000.0 0.3327984139833199 -0.38926803959318446
6177500000.0 0.3180846191224592 -0.4039405010917196
6180000000.0 0.3029328811314093 -0.41802526038550475
6182500000.0 0.2873655266348993 -0.4315159880469599
6185000000.0 0.27140405023444114 -0.4444067674345331
6187500000.0 0.2550691893993149 -0.45669193682050996
6190000000.0 0.23838102133549777 -0.46836594886063004
6192500000.0 0.22135907903956722 -0.47942325035053385
6195000000.0 0.204022483349835 -0.48985818480420334
6197500000.0 0.18639008746880012 -0.4996649199272163
6200000000.0 0.16848063015873466 -0.508837401549904
6202500000.0 0.15031289360987884 -0.5173693350415746
6205000000.0 0.13190586185403494 -0.5252541946566105
6207500000.0 0.11327887554860136 -0.5324852606757313
6210000000.0 0.09445177899019491 -0.5390556836122677
6212500000.0 0.07544505533266836 -0.5449585741651063
6215000000.0 0.05627994618330315 -0.5501871170273738
6217500000.0 0.03697855202870298 -0.5547347061152866
6220000000.0 0.017563910297622515 -0.5585950982752497
6222500000.0 -0.001939951705165022 -0.5617625820706228
6225000000.0 -0.021507991267977613 -0.5642321578528348
6227500000.0 -0.04111415386840483 -0.5659997249938828
6230000000.0 -0.060731407024458166 -0.5670622719076585
6232500000.0 -0.08033180489486087 -0.5674180643231747
6235000000.0 -0.09988658346464051 -0.5670668271986203
6237500000.0 -0.11936628548357403 -0.5660099156864212
6240000000.0 -0.13874091365753694 -0.5642504706764577
6242500000.0 -0.15798010994356262 -0.5617935546586384
6245000000.0 -0.1770533581797466 -0.5586462639540065
6247500000.0 -0.1959302067069518 -0.5548178137605484
6250000000.0 -0.21458050712334098 -0.5503195929405789
6252500000.0 -0.23297466486619117 -0.5451651860300452
6255000000.0 -0.25108389695077066 -0.5393703605680239
6257500000.0 -0.26888049192026914 -0.5329530185124999
6260000000.0 -0.2863380668824797 -0.5259331112148695
6262500000.0 -0.30343181643173356 -0.5183325181537999
6265000000.0 -0.32013874828147026 -0.5101748903662526
6267500000.0 -0.3364379005640562 -0.501485460242608
6270000000.0 -0.3523105359869716 -0.4922908200604245
6272500000.0 -0.36774030836500016 -0.4826186723024986
6275000000.0 -0.38271339746941946 -0.47249755542654914
6277500000.0 -0.3972186086393965 -0.4619565493141572
6280000000.0 -0.4112474341784376 -0.45102496511528695
6282500000.0 -0.4247940741988875 -0.43973202461223854
6285000000.0 -0.4378554152689994 -0.4281065345478825
6287500000.0 -0.45043096594625076 -0.4161765615898753
6290000000.0 -0.46252274903859 -0.4039691137340817
6292500000.0 -0.47413515120460065 -0.3915098339828162
6295000000.0 -0.48527473127773835 -0.37882271206731993
6297500000.0 -0.4959499894619046 -0.3659298198193508
6300000000.0 -0.5061711002885397 -0.3528510755363189
