! NanoVNA-App
! Date: 2026-03-29 20:32:39
! Start: 5.3GHz Stop: 6.3GHz Points: 1001
! S-Parameter data: F S11
# Hz S RI R 50
!     Frequency           S11_Real           S11_Imag
     5300000000    5.735281110e-01    5.314487815e-01
     5301000000    5.731263161e-01    5.341302156e-01
     5302000000    5.780065060e-01    5.302122235e-01
     5303000000    5.752282739e-01    5.180199742e-01
     5304000000    5.867000222e-01    5.280126333e-01
     5305000000    6.032205820e-01    5.199167728e-01
     5306000000    5.998958349e-01    5.258862972e-01
     5307000000    6.019448042e-01    5.084376335e-01
     5308000000    6.041316390e-01    5.022860765e-01
     5309000000    6.030135155e-01    5.076108575e-01
     5310000000    6.200324893e-01    4.987368882e-01
     5311000000    6.202444434e-01    4.985414445e-01
     5312000000    6.239851117e-01    4.952330589e-01
     5313000000    6.343154907e-01    4.880715609e-01
     5314000000    6.289668083e-01    4.968877137e-01
     5315000000    6.402729154e-01    4.840868115e-01
     5316000000    6.331213713e-01    4.906387925e-01
     5317000000    6.522929668e-01    4.787887931e-01
     5318000000    6.446319818e-01    4.657557309e-01
     5319000000    6.612024903e-01    4.798038304e-01
     5320000000    6.596519351e-01    4.656342268e-01
     5321000000    6.661715508e-01    4.647745490e-01
     5322000000    6.615675092e-01    4.594025314e-01
     5323000000    6.704526544e-01    4.514470696e-01
     5324000000    6.695871949e-01    4.488077462e-01
     5325000000    6.759712100e-01    4.481335580e-01
     5326000000    6.826153398e-01    4.490522742e-01
     5327000000    6.867014170e-01    4.343774021e-01
     5328000000    6.914960742e-01    4.255798757e-01
     5329000000    6.895595789e-01    4.300528169e-01
     5330000000    6.950266957e-01    4.228342474e-01
     5331000000    7.007535696e-01    4.203787744e-01
     5332000000    7.030721307e-01    4.165440798e-01
     5333000000    7.110690475e-01    4.014357030e-01
     5334000000    7.075827122e-01    4.078187048e-01
     5335000000    7.129011154e-01    4.019122720e-01
     5336000000    7.184873223e-01    3.909522891e-01
     5337000000    7.166815400e-01    3.868865669e-01
     5338000000    7.263069749e-01    3.951127529e-01
     5339000000    7.250775695e-01    3.833467960e-01
     5340000000    7.277560234e-01    3.783909082e-01
     5341000000    7.292531729e-01    3.748978674e-01
     5342000000    7.315216660e-01    3.698009551e-01
     5343000000    7.374968529e-01    3.643865585e-01
     5344000000    7.337853909e-01    3.691987991e-01
     5345000000    7.431038022e-01    3.576852977e-01
     5346000000    7.475104928e-01    3.439748585e-01
     5347000000    7.482126355e-01    3.504889905e-01
     5348000000    7.488120198e-01    3.276261091e-01
     5349000000    7.496905923e-01    3.500199616e-01
     5350000000    7.513843775e-01    3.367470205e-01
     5351000000    7.588669062e-01    3.273142278e-01
     5352000000    7.579189539e-01    3.218190670e-01
     5353000000    7.582563162e-01    3.106195331e-01
     5354000000    7.637873888e-01    3.247469366e-01
     5355000000    7.652546763e-01    3.197285533e-01
     5356000000    7.693274617e-01    2.987306714e-01
     5357000000    7.653059959e-01    3.067253828e-01
     5358000000    7.691761255e-01    2.920698524e-01
     5359000000    7.718508244e-01    3.051961064e-01
     5360000000    7.725120783e-01    2.869372368e-01
     5361000000    7.808783650e-01    2.660744786e-01
     5362000000    7.758155465e-01    2.899296880e-01
     5363000000    7.774233818e-01    2.715479732e-01
     5364000000    7.811943293e-01    2.771238685e-01
     5365000000    7.807151675e-01    2.611380517e-01
     5366000000    7.892344594e-01    2.586874366e-01
     5367000000    7.879977822e-01    2.576178014e-01
     5368000000    7.869074345e-01    2.477831841e-01
     5369000000    7.948458791e-01    2.567699254e-01
     5370000000    7.925834656e-01    2.488492429e-01
     5371000000    7.971998453e-01    2.283784002e-01
     5372000000    7.919251919e-01    2.468638271e-01
     5373000000    7.971595526e-01    2.311375737e-01
     5374000000    8.014198542e-01    2.147967517e-01
     5375000000    8.009429574e-01    2.181515098e-01
     5376000000    8.059239984e-01    2.188763618e-01
     5377000000    8.014955521e-01    1.981159747e-01
     5378000000    8.020119667e-01    2.125918865e-01
     5379000000    8.076487780e-01    2.071422487e-01
     5380000000    8.017166257e-01    1.895803064e-01
     5381000000    8.088507056e-01    1.689954549e-01
     5382000000    8.103215098e-01    1.981054395e-01
     5383000000    8.111568093e-01    1.726956367e-01
     5384000000    8.160945177e-01    1.827598214e-01
     5385000000    8.114456534e-01    1.772580743e-01
     5386000000    8.187395930e-01    1.630870849e-01
     5387000000    8.156709671e-01    1.623613238e-01
     5388000000    8.126748800e-01    1.537245661e-01
     5389000000    8.211903572e-01    1.581681669e-01
     5390000000    8.206534386e-01    1.397911906e-01
     5391000000    8.212341070e-01    1.317187846e-01
     5392000000    8.212988973e-01    1.610161066e-01
     5393000000    8.195824027e-01    1.383457780e-01
     5394000000    8.263493776e-01    1.301215738e-01
     5395000000    8.286731839e-01    1.173276901e-01
     5396000000    8.292357326e-01    1.045888513e-01
     5397000000    8.350535631e-01    1.345549822e-01
     5398000000    8.251102567e-01    1.069950014e-01
     5399000000    8.325282931e-01    1.024728119e-01
     5400000000    8.379929066e-01    9.531156719e-02
     5401000000    8.247471452e-01    7.551242411e-02
     5402000000    8.285132051e-01    1.007989645e-01
     5403000000    8.333525062e-01    7.312686741e-02
     5404000000    8.434224129e-01    8.983447403e-02
     5405000000    8.334086537e-01    8.833541721e-02
     5406000000    8.339138031e-01    5.566071346e-02
     5407000000    8.379153013e-01    8.070477098e-02
     5408000000    8.359134197e-01    5.792940035e-02
     5409000000    8.404343128e-01    6.650871783e-02
     5410000000    8.364501595e-01    5.573106557e-02
     5411000000    8.384906650e-01    2.818951383e-02
     5412000000    8.515012860e-01    6.470154971e-02
     5413000000    8.449628949e-01    3.556355461e-02
     5414000000    8.388797641e-01    2.567169257e-02
     5415000000    8.398271203e-01    3.187216446e-02
     5416000000    8.438101411e-01    2.573561668e-02
     5417000000    8.406880498e-01    3.326711804e-02
     5418000000    8.418429494e-01    2.386588417e-02
     5419000000    8.380794525e-01   -1.336155832e-02
     5420000000    8.412516713e-01    3.319712356e-02
     5421000000    8.368835449e-01   -1.596696861e-02
     5422000000    8.398166895e-01    5.612881854e-03
     5423000000    8.386371136e-01   -2.244467475e-02
     5424000000    8.538208604e-01   -2.104591392e-02
     5425000000    8.459494114e-01   -9.995841421e-03
     5426000000    8.426478505e-01   -1.511979476e-02
     5427000000    8.393866420e-01   -3.749790415e-02
     5428000000    8.403589725e-01   -2.001953311e-02
     5429000000    8.420870900e-01   -4.415605590e-02
     5430000000    8.480745554e-01   -1.667759567e-02
     5431000000    8.406642675e-01   -6.212258339e-02
     5432000000    8.420299888e-01   -5.186967924e-02
     5433000000    8.441115022e-01   -4.006719589e-02
     5434000000    8.403341770e-01   -7.391486317e-02
     5435000000    8.415131569e-01   -6.239954010e-02
     5436000000    8.478626013e-01   -4.911626875e-02
     5437000000    8.381147981e-01   -8.211418241e-02
     5438000000    8.390684724e-01   -7.960522920e-02
     5439000000    8.384422660e-01   -7.853845507e-02
     5440000000    8.432360888e-01   -1.011617929e-01
     5441000000    8.317476511e-01   -8.183947951e-02
     5442000000    8.336501122e-01   -1.173237413e-01
     5443000000    8.390048146e-01   -9.249743074e-02
     5444000000    8.336036801e-01   -1.221036389e-01
     5445000000    8.433730006e-01   -8.642880619e-02
     5446000000    8.364517689e-01   -1.392232627e-01
     5447000000    8.348069787e-01   -1.106304526e-01
     5448000000    8.359898925e-01   -1.161155626e-01
     5449000000    8.200845122e-01   -1.629353017e-01
     5450000000    8.283928037e-01   -1.215405390e-01
     5451000000    8.305587173e-01   -1.509241313e-01
     5452000000    8.266626596e-01   -1.256912947e-01
     5453000000    8.318043947e-01   -1.528108567e-01
     5454000000    8.259794116e-01   -1.547340155e-01
     5455000000    8.308632374e-01   -1.340570003e-01
     5456000000    8.236976266e-01   -1.689210236e-01
     5457000000    8.202711344e-01   -1.649379283e-01
     5458000000    8.204854131e-01   -1.621168703e-01
     5459000000    8.231322169e-01   -1.756061614e-01
     5460000000    8.195579052e-01   -1.543923616e-01
     5461000000    8.213994503e-01   -1.543515921e-01
     5462000000    8.170735836e-01   -1.820226312e-01
     5463000000    8.203141093e-01   -1.892974675e-01
     5464000000    8.210572600e-01   -1.969181895e-01
     5465000000    8.310838938e-01   -1.828225404e-01
     5466000000    8.224988580e-01   -1.935947835e-01
     5467000000    8.129805923e-01   -2.027327865e-01
     5468000000    8.173077106e-01   -2.048229277e-01
     5469000000    8.193142414e-01   -2.178749293e-01
     5470000000    8.192918897e-01   -2.081272900e-01
     5471000000    8.178550005e-01   -2.205215096e-01
     5472000000    8.121506572e-01   -2.149250805e-01
     5473000000    8.171120882e-01   -2.148593366e-01
     5474000000    8.165207505e-01   -2.452726811e-01
     5475000000    8.092522621e-01   -2.117572874e-01
     5476000000    8.171003461e-01   -2.269153595e-01
     5477000000    8.078419566e-01   -2.644196153e-01
     5478000000    8.136785626e-01   -2.313644290e-01
     5479000000    8.115804791e-01   -2.652645409e-01
     5480000000    8.097453117e-01   -2.430987805e-01
     5481000000    8.075433373e-01   -2.366340309e-01
     5482000000    8.080838323e-01   -2.932971120e-01
     5483000000    8.073519468e-01   -2.531615198e-01
     5484000000    8.070868254e-01   -2.845547497e-01
     5485000000    8.013757467e-01   -2.775712311e-01
     5486000000    8.072373867e-01   -3.043787181e-01
     5487000000    8.000416160e-01   -2.926022112e-01
     5488000000    8.000504971e-01   -2.807433009e-01
     5489000000    8.042883277e-01   -3.007647693e-01
     5490000000    7.953482270e-01   -2.891289592e-01
     5491000000    7.962086201e-01   -3.056895435e-01
     5492000000    7.901385427e-01   -3.269042373e-01
     5493000000    7.921374440e-01   -2.901605368e-01
     5494000000    7.942151427e-01   -3.305208385e-01
     5495000000    7.872073054e-01   -3.219921291e-01
     5496000000    7.906810045e-01   -3.402386904e-01
     5497000000    7.821592093e-01   -3.378276825e-01
     5498000000    7.913386226e-01   -3.221563697e-01
     5499000000    7.848995328e-01   -3.486343920e-01
     5500000000    7.748840451e-01   -3.561597168e-01
     5501000000    7.758120298e-01   -3.464643061e-01
     5502000000    7.728872895e-01   -3.485108614e-01
     5503000000    7.809885740e-01   -3.584051430e-01
     5504000000    7.760052681e-01   -3.696860671e-01
     5505000000    7.692815661e-01   -3.681416214e-01
     5506000000    7.728179693e-01   -3.806412518e-01
     5507000000    7.670705318e-01   -3.910153210e-01
     5508000000    7.643846273e-01   -3.839654922e-01
     5509000000    7.694680095e-01   -3.741964400e-01
     5510000000    7.551319003e-01   -3.882214129e-01
     5511000000    7.583580613e-01   -3.945561647e-01
     5512000000    7.513628602e-01   -4.152403474e-01
     5513000000    7.561853528e-01   -3.953467906e-01
     5514000000    7.545605898e-01   -4.103951156e-01
     5515000000    7.462226152e-01   -4.157666862e-01
     5516000000    7.511251569e-01   -4.197210371e-01
     5517000000    7.404844761e-01   -4.316805005e-01
     5518000000    7.445170879e-01   -4.241101742e-01
     5519000000    7.454413772e-01   -4.324426949e-01
     5520000000    7.344435453e-01   -4.411990941e-01
     5521000000    7.365106940e-01   -4.363428652e-01
     5522000000    7.321154475e-01   -4.541179538e-01
     5523000000    7.326448560e-01   -4.477963150e-01
     5524000000    7.337347269e-01   -4.475131333e-01
     5525000000    7.199684381e-01   -4.638667405e-01
     5526000000    7.248029113e-01   -4.588695467e-01
     5527000000    7.222814560e-01   -4.718601108e-01
     5528000000    7.190011740e-01   -4.740815759e-01
     5529000000    7.172663808e-01   -4.739619792e-01
     5530000000    7.038396597e-01   -4.922539890e-01
     5531000000    7.109766006e-01   -4.778813720e-01
     5532000000    7.061689496e-01   -4.935368001e-01
     5533000000    7.040485144e-01   -4.902481437e-01
     5534000000    6.992908716e-01   -4.994847476e-01
     5535000000    6.920631528e-01   -5.058172941e-01
     5536000000    6.980337501e-01   -5.017845631e-01
     5537000000    6.917034984e-01   -5.150495172e-01
     5538000000    6.905885935e-01   -5.057172179e-01
     5539000000    6.875821948e-01   -5.135723948e-01
     5540000000    6.804643273e-01   -5.257716775e-01
     5541000000    6.808201075e-01   -5.229293108e-01
     5542000000    6.790412068e-01   -5.273531675e-01
     5543000000    6.736294627e-01   -5.306761265e-01
     5544000000    6.722303033e-01   -5.350582004e-01
     5545000000    6.635572314e-01   -5.432410240e-01
     5546000000    6.654618382e-01   -5.439347625e-01
     5547000000    6.642806530e-01   -5.421844721e-01
     5548000000    6.600641012e-01   -5.481242537e-01
     5549000000    6.529023051e-01   -5.569910407e-01
     5550000000    6.483651996e-01   -5.666363239e-01
     5551000000    6.498508453e-01   -5.579460859e-01
     5552000000    6.437973976e-01   -5.667886734e-01
     5553000000    6.429403424e-01   -5.682201982e-01
     5554000000    6.356257200e-01   -5.710921288e-01
     5555000000    6.308986545e-01   -5.835464597e-01
     5556000000    6.405777335e-01   -5.693002343e-01
     5557000000    6.290398240e-01   -5.788353086e-01
     5558000000    6.266816854e-01   -5.887675285e-01
     5559000000    6.166026592e-01   -5.914703608e-01
     5560000000    6.170828342e-01   -5.924002528e-01
     5561000000    6.127472520e-01   -5.941208601e-01
     5562000000    6.073281765e-01   -5.958014131e-01
     5563000000    6.080234051e-01   -5.983670950e-01
     5564000000    6.014836431e-01   -6.056736112e-01
     5565000000    5.962893963e-01   -6.102672219e-01
     5566000000    5.924922228e-01   -6.104766130e-01
     5567000000    5.881883502e-01   -6.103819013e-01
     5568000000    5.851339102e-01   -6.200073957e-01
     5569000000    5.818611979e-01   -6.176729202e-01
     5570000000    5.753604174e-01   -6.298820376e-01
     5571000000    5.735720396e-01   -6.247463822e-01
     5572000000    5.685588121e-01   -6.283994913e-01
     5573000000    5.648226738e-01   -6.354640126e-01
     5574000000    5.554473400e-01   -6.316992640e-01
     5575000000    5.479878783e-01   -6.425488591e-01
     5576000000    5.593634248e-01   -6.369728446e-01
     5577000000    5.456345081e-01   -6.429262161e-01
     5578000000    5.424982905e-01   -6.493358612e-01
     5579000000    5.431938171e-01   -6.497745514e-01
     5580000000    5.318108797e-01   -6.528398395e-01
     5581000000    5.317177773e-01   -6.487688422e-01
     5582000000    5.241497755e-01   -6.556590199e-01
     5583000000    5.234173536e-01   -6.642316580e-01
     5584000000    5.192909837e-01   -6.608288288e-01
     5585000000    5.015578866e-01   -6.685501337e-01
     5586000000    5.215504766e-01   -6.671169400e-01
     5587000000    4.933929145e-01   -6.746066213e-01
     5588000000    5.000798106e-01   -6.736297011e-01
     5589000000    5.053179860e-01   -6.784973145e-01
     5590000000    4.783535004e-01   -6.814586520e-01
     5591000000    5.021677017e-01   -6.850115061e-01
     5592000000    4.829547405e-01   -6.899617314e-01
     5593000000    4.638921916e-01   -6.911887527e-01
     5594000000    4.775159359e-01   -6.899389029e-01
     5595000000    4.671732485e-01   -6.948769689e-01
     5596000000    4.644160867e-01   -6.938219666e-01
     5597000000    4.440110624e-01   -6.928685904e-01
     5598000000    4.698589146e-01   -7.069182992e-01
     5599000000    4.453338087e-01   -7.036480308e-01
     5600000000    4.267850220e-01   -7.052705884e-01
     5601000000    4.496653378e-01   -7.136992216e-01
     5602000000    4.327135086e-01   -7.070432305e-01
     5603000000    4.179741740e-01   -7.142105103e-01
     5604000000    4.229665101e-01   -7.034838200e-01
     5605000000    4.073868394e-01   -7.152588964e-01
     5606000000    4.117871523e-01   -7.179244757e-01
     5607000000    4.185222387e-01   -7.264899611e-01
     5608000000    3.974884152e-01   -7.245056629e-01
     5609000000    3.882306814e-01   -7.215468884e-01
     5610000000    3.949889243e-01   -7.274923921e-01
     5611000000    3.782817125e-01   -7.268748283e-01
     5612000000    3.918545246e-01   -7.301557064e-01
     5613000000    3.756126761e-01   -7.336007953e-01
     5614000000    3.655357957e-01   -7.273340225e-01
     5615000000    3.481279314e-01   -7.345185876e-01
     5616000000    3.738876283e-01   -7.333545685e-01
     5617000000    3.357464373e-01   -7.340934277e-01
     5618000000    3.499642015e-01   -7.349157929e-01
     5619000000    3.547167182e-01   -7.409029007e-01
     5620000000    3.313029408e-01   -7.409471273e-01
     5621000000    3.407846093e-01   -7.463962436e-01
     5622000000    3.147901297e-01   -7.385648489e-01
     5623000000    3.199885786e-01   -7.471757531e-01
     5624000000    3.111174107e-01   -7.452843189e-01
     5625000000    2.992060781e-01   -7.475140095e-01
     5626000000    3.167708218e-01   -7.365065217e-01
     5627000000    3.171511889e-01   -7.493081689e-01
     5628000000    3.010267317e-01   -7.517371178e-01
     5629000000    2.978558540e-01   -7.542579174e-01
     5630000000    2.745975852e-01   -7.497616410e-01
     5631000000    3.012051284e-01   -7.489072084e-01
     5632000000    2.935438454e-01   -7.545511127e-01
     5633000000    2.756359577e-01   -7.530723810e-01
     5634000000    2.856331766e-01   -7.511573434e-01
     5635000000    2.527753413e-01   -7.542277575e-01
     5636000000    2.552324533e-01   -7.481068373e-01
     5637000000    2.763034403e-01   -7.585915923e-01
     5638000000    2.330325544e-01   -7.589043975e-01
     5639000000    2.682457268e-01   -7.597783804e-01
     5640000000    2.406537384e-01   -7.749739289e-01
     5641000000    2.476606816e-01   -7.527335286e-01
     5642000000    2.592715919e-01   -7.595859170e-01
     5643000000    2.122405022e-01   -7.657544017e-01
     5644000000    2.180354595e-01   -7.671316862e-01
     5645000000    2.162499428e-01   -7.665998340e-01
     5646000000    2.256595343e-01   -7.562911510e-01
     5647000000    2.283764780e-01   -7.662158608e-01
     5648000000    1.832818687e-01   -7.680756450e-01
     5649000000    2.043157816e-01   -7.705230713e-01
     5650000000    2.250160575e-01   -7.669755816e-01
     5651000000    1.798076034e-01   -7.699724436e-01
     5652000000    1.989460140e-01   -7.817357779e-01
     5653000000    1.653761417e-01   -8.016984463e-01
     5654000000    1.905345619e-01   -7.802237868e-01
     5655000000    1.883677989e-01   -7.799538374e-01
     5656000000    1.729183644e-01   -7.706141472e-01
     5657000000    1.661147028e-01   -7.822068334e-01
     5658000000    1.574640870e-01   -7.834025621e-01
     5659000000    1.678530574e-01   -7.787022591e-01
     5660000000    1.576115936e-01   -7.897907495e-01
     5661000000    1.358111352e-01   -7.765097022e-01
     5662000000    1.345819682e-01   -7.881965637e-01
     5663000000    1.396616548e-01   -7.834796906e-01
     5664000000    9.972244501e-02   -7.716112137e-01
     5665000000    1.141114011e-01   -7.911620140e-01
     5666000000    1.152645573e-01   -7.761213183e-01
     5667000000    1.279938519e-01   -7.883803248e-01
     5668000000    8.513359725e-02   -7.948758602e-01
     5669000000    8.299160749e-02   -7.808435559e-01
     5670000000    1.003242210e-01   -7.851325274e-01
     5671000000    9.776464105e-02   -7.797136307e-01
     5672000000    8.053182811e-02   -7.870310545e-01
     5673000000    4.571103305e-02   -7.890873551e-01
     5674000000    7.793136686e-02   -7.830778956e-01
     5675000000    5.027703196e-02   -7.810981274e-01
     5676000000    4.134326801e-02   -7.682024240e-01
     5677000000    4.795729741e-02   -7.837513685e-01
     5678000000    2.335678972e-02   -7.832450867e-01
     5679000000    4.579224437e-02   -7.694881558e-01
     5680000000    4.571490362e-02   -7.721740007e-01
     5681000000    7.569658570e-03   -7.664948702e-01
     5682000000    1.659004390e-02   -7.828856707e-01
     5683000000   -1.549366117e-02   -7.776247263e-01
     5684000000    2.573039010e-02   -7.547207475e-01
     5685000000   -8.381819353e-03   -7.721447945e-01
     5686000000   -3.474470600e-02   -7.651547194e-01
     5687000000   -9.318785742e-03   -7.681745887e-01
     5688000000   -3.428425267e-02   -7.776095271e-01
     5689000000   -3.042033315e-02   -7.513877153e-01
     5690000000   -5.347348377e-02   -7.523956299e-01
     5691000000   -5.182354525e-02   -7.540190220e-01
     5692000000   -3.032507002e-02   -7.570942044e-01
     5693000000   -5.693477765e-02   -7.529672980e-01
     5694000000   -6.970742345e-02   -7.361019850e-01
     5695000000   -7.664577663e-02   -7.466968298e-01
     5696000000   -8.645263314e-02   -7.468854189e-01
     5697000000   -7.750765979e-02   -7.388858795e-01
     5698000000   -8.792652935e-02   -7.415605187e-01
     5699000000   -9.223324805e-02   -7.126606107e-01
     5700000000   -9.136552364e-02   -7.342633009e-01
     5701000000   -1.257899106e-01   -7.313086987e-01
     5702000000   -1.031385064e-01   -7.185851932e-01
     5703000000   -1.132108048e-01   -7.203847766e-01
     5704000000   -1.245168671e-01   -7.003113627e-01
     5705000000   -1.141852885e-01   -7.061732411e-01
     5706000000   -1.536168307e-01   -7.135801911e-01
     5707000000   -1.371705234e-01   -7.043637633e-01
     5708000000   -1.230722368e-01   -6.916078925e-01
     5709000000   -1.616963744e-01   -6.899466515e-01
     5710000000   -1.481722742e-01   -6.891696453e-01
     5711000000   -1.630981416e-01   -6.870841980e-01
     5712000000   -1.758819669e-01   -6.857003570e-01
     5713000000   -1.647408456e-01   -6.815848947e-01
     5714000000   -1.736352742e-01   -6.513913870e-01
     5715000000   -1.679047048e-01   -6.580641270e-01
     5716000000   -2.098638713e-01   -6.711006165e-01
     5717000000   -1.768126190e-01   -6.501422524e-01
     5718000000   -2.013539225e-01   -6.550311446e-01
     5719000000   -1.995495260e-01   -6.369680166e-01
     5720000000   -2.209935635e-01   -6.488603354e-01
     5721000000   -2.223964334e-01   -6.396561861e-01
     5722000000   -1.882099956e-01   -6.266086102e-01
     5723000000   -2.261701822e-01   -6.348767281e-01
     5724000000   -2.335138172e-01   -6.100115776e-01
     5725000000   -2.272808999e-01   -6.252993941e-01
     5726000000   -2.300000489e-01   -6.142235398e-01
     5727000000   -2.298687845e-01   -6.091446280e-01
     5728000000   -2.410179228e-01   -6.006804705e-01
     5729000000   -2.460864484e-01   -5.953365564e-01
     5730000000   -2.453010529e-01   -5.964226723e-01
     5731000000   -2.541817427e-01   -5.973849297e-01
     5732000000   -2.517874539e-01   -5.730463862e-01
     5733000000   -2.559421957e-01   -5.865236521e-01
     5734000000   -2.668263912e-01   -5.699799061e-01
     5735000000   -2.687802017e-01   -5.847774148e-01
     5736000000   -2.641905546e-01   -5.784960389e-01
     5737000000   -2.720047832e-01   -5.506004095e-01
     5738000000   -2.708804905e-01   -5.525868535e-01
     5739000000   -2.873242795e-01   -5.474380255e-01
     5740000000   -2.834834754e-01   -5.521780849e-01
     5741000000   -2.882318795e-01   -5.414420962e-01
     5742000000   -2.850740850e-01   -5.245747566e-01
     5743000000   -2.935126126e-01   -5.297223926e-01
     5744000000   -3.022462428e-01   -5.289414525e-01
     5745000000   -3.031781912e-01   -5.237653255e-01
     5746000000   -3.084403574e-01   -5.183979273e-01
     5747000000   -3.017110229e-01   -4.993397295e-01
     5748000000   -3.034345210e-01   -5.018875003e-01
     5749000000   -3.198845983e-01   -5.038154721e-01
     5750000000   -3.167077303e-01   -4.944711328e-01
     5751000000   -3.194361627e-01   -4.888230562e-01
     5752000000   -3.189237416e-01   -4.681612551e-01
     5753000000   -3.310830593e-01   -4.806460440e-01
     5754000000   -3.305193186e-01   -4.763286114e-01
     5755000000   -3.260993958e-01   -4.675050378e-01
     5756000000   -3.358964026e-01   -4.632847011e-01
     5757000000   -3.372832835e-01   -4.427283108e-01
     5758000000   -3.418581486e-01   -4.513641298e-01
     5759000000   -3.432369232e-01   -4.458121955e-01
     5760000000   -3.399794102e-01   -4.386205375e-01
     5761000000   -3.499471843e-01   -4.348475933e-01
     5762000000   -3.515633941e-01   -4.161896110e-01
     5763000000   -3.482945263e-01   -4.246062934e-01
     5764000000   -3.531768322e-01   -4.138798416e-01
     5765000000   -3.502727747e-01   -4.112583101e-01
     5766000000   -3.555323780e-01   -4.085044265e-01
     5767000000   -3.585840166e-01   -3.889924288e-01
     5768000000   -3.600950539e-01   -3.882457018e-01
     5769000000   -3.594833910e-01   -3.894303441e-01
     5770000000   -3.617087007e-01   -3.788360059e-01
     5771000000   -3.648208678e-01   -3.706369102e-01
     5772000000   -3.667275906e-01   -3.564874828e-01
     5773000000   -3.643066883e-01   -3.652544320e-01
     5774000000   -3.641546071e-01   -3.584241867e-01
     5775000000   -3.686283231e-01   -3.446120024e-01
     5776000000   -3.694266379e-01   -3.409674764e-01
     5777000000   -3.759392798e-01   -3.178100884e-01
     5778000000   -3.679854870e-01   -3.286389112e-01
     5779000000   -3.649223745e-01   -3.266828358e-01
     5780000000   -3.716661632e-01   -3.108929992e-01
     5781000000   -3.682395816e-01   -3.052233458e-01
     5782000000   -3.722045124e-01   -2.973748744e-01
     5783000000   -3.699989915e-01   -2.936208248e-01
     5784000000   -3.672997653e-01   -2.908238769e-01
     5785000000   -3.787168562e-01   -2.785421908e-01
     5786000000   -3.696174622e-01   -2.735804915e-01
     5787000000   -3.766955435e-01   -2.620599866e-01
     5788000000   -3.679674268e-01   -2.594166100e-01
     5789000000   -3.663858771e-01   -2.556050718e-01
     5790000000   -3.769101202e-01   -2.416808903e-01
     5791000000   -3.703159094e-01   -2.376381010e-01
     5792000000   -3.677721024e-01   -2.279197425e-01
     5793000000   -3.690440655e-01   -2.262164503e-01
     5794000000   -3.629832864e-01   -2.174376845e-01
     5795000000   -3.678423166e-01   -2.051386088e-01
     5796000000   -3.590994775e-01   -2.054996043e-01
     5797000000   -3.560570180e-01   -1.953730285e-01
     5798000000   -3.613223732e-01   -1.889917701e-01
     5799000000   -3.522877097e-01   -1.825941950e-01
     5800000000   -3.628666103e-01   -1.769179404e-01
     5801000000   -3.530378640e-01   -1.707630754e-01
     5802000000   -3.488241136e-01   -1.644788235e-01
     5803000000   -3.475736976e-01   -1.581617594e-01
     5804000000   -3.385494053e-01   -1.497375220e-01
     5805000000   -3.478994966e-01   -1.473593265e-01
     5806000000   -3.393748999e-01   -1.367873847e-01
     5807000000   -3.402714133e-01   -1.350139678e-01
     5808000000   -3.326112628e-01   -1.279286295e-01
     5809000000   -3.255053759e-01   -1.205138266e-01
     5810000000   -3.324600160e-01   -1.129296049e-01
     5811000000   -3.282353878e-01   -1.128405333e-01
     5812000000   -3.197861016e-01   -1.029903665e-01
     5813000000   -3.200588524e-01   -9.738064557e-02
     5814000000   -3.105413318e-01   -9.148391336e-02
     5815000000   -3.188414872e-01   -8.787694573e-02
     5816000000   -3.002211452e-01   -7.915825397e-02
     5817000000   -2.986574471e-01   -7.510589063e-02
     5818000000   -2.989821732e-01   -6.925444305e-02
     5819000000   -2.891147435e-01   -6.348289549e-02
     5820000000   -3.015601933e-01   -6.355605274e-02
     5821000000   -2.851101458e-01   -5.312025920e-02
     5822000000   -2.835823894e-01   -5.063199624e-02
     5823000000   -2.800340950e-01   -4.975908995e-02
     5824000000   -2.726089060e-01   -3.997730464e-02
     5825000000   -2.808527052e-01   -3.998726979e-02
     5826000000   -2.696245909e-01   -3.524839133e-02
     5827000000   -2.613385320e-01   -2.925582789e-02
     5828000000   -2.575756907e-01   -2.290776558e-02
     5829000000   -2.550718486e-01   -2.169842832e-02
     5830000000   -2.544427514e-01   -1.597154699e-02
     5831000000   -2.374722660e-01   -1.160641760e-02
     5832000000   -2.328494787e-01   -6.154784001e-03
     5833000000   -2.426992953e-01   -6.302671507e-03
     5834000000   -2.241790593e-01   -3.648446873e-04
     5835000000   -2.230300754e-01    4.696271382e-03
     5836000000   -2.218379676e-01    2.172172070e-03
     5837000000   -2.066766918e-01    1.162893604e-02
     5838000000   -2.145478427e-01    1.008138340e-02
     5839000000   -2.090874910e-01    1.467108354e-02
     5840000000   -2.104971260e-01    1.214025728e-02
     5841000000   -1.859463006e-01    3.474085405e-02
     5842000000   -1.890088469e-01    2.660311013e-02
     5843000000   -1.845641881e-01    3.196731955e-02
     5844000000   -1.782785952e-01    3.205559030e-02
     5845000000   -1.731269360e-01    4.256713390e-02
     5846000000   -1.703915596e-01    3.769501299e-02
     5847000000   -1.546326280e-01    5.194769800e-02
     5848000000   -1.643793136e-01    3.258616105e-02
     5849000000   -1.462896019e-01    5.275546387e-02
     5850000000   -1.517186612e-01    3.950059414e-02
     5851000000   -1.397553831e-01    4.892587662e-02
     5852000000   -1.287143230e-01    5.575635657e-02
     5853000000   -1.317362338e-01    4.694834352e-02
     5854000000   -1.139493659e-01    6.387552619e-02
     5855000000   -1.168911681e-01    5.243137851e-02
     5856000000   -1.008043289e-01    6.777783483e-02
     5857000000   -9.043694288e-02    6.627890468e-02
     5858000000   -9.399166703e-02    5.992941186e-02
     5859000000   -8.593167365e-02    5.790486559e-02
     5860000000   -8.201257885e-02    6.366410106e-02
     5861000000   -7.627177238e-02    5.928225815e-02
     5862000000   -6.365153193e-02    6.306659430e-02
     5863000000   -6.083679572e-02    6.034552306e-02
     5864000000   -5.152356625e-02    6.708693504e-02
     5865000000   -5.120443925e-02    5.471325293e-02
     5866000000   -3.641543910e-02    6.956797838e-02
     5867000000   -3.523996472e-02    5.757806450e-02
     5868000000   -1.995911635e-02    6.518434733e-02
     5869000000   -1.966976561e-02    5.738357827e-02
     5870000000   -1.586521789e-02    5.722574145e-02
     5871000000   -6.825073622e-03    5.447899550e-02
     5872000000    7.941210642e-04    5.796700716e-02
     5873000000    3.411610611e-03    4.136405513e-02
     5874000000    1.250575017e-02    5.282083899e-02
     5875000000    2.093604952e-02    5.744195729e-02
     5876000000    2.243464068e-02    4.171361029e-02
     5877000000    3.071548231e-02    5.000806227e-02
     5878000000    3.498565778e-02    3.415364027e-02
     5879000000    4.425990209e-02    4.734048247e-02
     5880000000    5.279981345e-02    3.601937741e-02
     5881000000    5.267337710e-02    3.039305657e-02
     5882000000    5.570056662e-02    3.203564137e-02
     5883000000    6.467668712e-02    1.798080653e-02
     5884000000    6.868549436e-02    1.760254800e-02
     5885000000    7.593491673e-02    2.346580476e-02
     5886000000    7.969592512e-02    4.158593714e-03
     5887000000    8.277768642e-02    1.256252918e-02
     5888000000    8.760446310e-02    9.848903865e-04
     5889000000    9.189052135e-02   -2.142228186e-04
     5890000000    9.307452291e-02   -3.584370017e-03
     5891000000    9.987573326e-02   -1.430720929e-02
     5892000000    1.004261076e-01   -1.364835445e-02
     5893000000    1.063264087e-01   -2.860671654e-02
     5894000000    1.084359959e-01   -2.376445942e-02
     5895000000    1.105977446e-01   -2.402558178e-02
     5896000000    1.162443981e-01   -4.274142161e-02
     5897000000    1.188419387e-01   -3.810143098e-02
     5898000000    1.239029542e-01   -4.887896031e-02
     5899000000    1.224194542e-01   -5.014057457e-02
     5900000000    1.212196127e-01   -4.806983098e-02
     5901000000    1.299059987e-01   -6.197725609e-02
     5902000000    1.311635226e-01   -6.628920883e-02
     5903000000    1.314056963e-01   -6.874601543e-02
     5904000000    1.348374486e-01   -7.055069506e-02
     5905000000    1.336651593e-01   -7.322522998e-02
     5906000000    1.422762722e-01   -8.660838008e-02
     5907000000    1.425831318e-01   -8.705393225e-02
     5908000000    1.422892213e-01   -9.487157315e-02
     5909000000    1.443296075e-01   -9.945415705e-02
     5910000000    1.456473172e-01   -1.028819084e-01
     5911000000    1.487193108e-01   -1.099092439e-01
     5912000000    1.487872601e-01   -1.140222847e-01
     5913000000    1.550308168e-01   -1.224530637e-01
     5914000000    1.411986351e-01   -1.163968891e-01
     5915000000    1.538170725e-01   -1.311514229e-01
     5916000000    1.583212018e-01   -1.341270953e-01
     5917000000    1.573780030e-01   -1.386465430e-01
     5918000000    1.457623839e-01   -1.410336792e-01
     5919000000    1.592765898e-01   -1.529569924e-01
     5920000000    1.574535817e-01   -1.585258394e-01
     5921000000    1.618770510e-01   -1.653536260e-01
     5922000000    1.493163556e-01   -1.622814387e-01
     5923000000    1.566035300e-01   -1.747306287e-01
     5924000000    1.669135541e-01   -1.823138744e-01
     5925000000    1.538258344e-01   -1.816470772e-01
     5926000000    1.644101292e-01   -1.969604045e-01
     5927000000    1.627674997e-01   -1.993457228e-01
     5928000000    1.507119685e-01   -1.989508122e-01
     5929000000    1.589144617e-01   -2.126816362e-01
     5930000000    1.501272917e-01   -2.140269428e-01
     5931000000    1.637531519e-01   -2.267908603e-01
     5932000000    1.594235003e-01   -2.307093740e-01
     5933000000    1.458123028e-01   -2.341696322e-01
     5934000000    1.732317656e-01   -2.431906313e-01
     5935000000    1.352513134e-01   -2.468398362e-01
     5936000000    1.549465209e-01   -2.543030381e-01
     5937000000    1.550162882e-01   -2.585022748e-01
     5938000000    1.332582682e-01   -2.674310207e-01
     5939000000    1.493991017e-01   -2.742745578e-01
     5940000000    1.332684308e-01   -2.847086191e-01
     5941000000    1.420838088e-01   -2.841739058e-01
     5942000000    1.296062022e-01   -2.927670777e-01
     5943000000    1.173291206e-01   -2.978740633e-01
     5944000000    1.437485963e-01   -3.037887812e-01
     5945000000    1.196244135e-01   -3.099244237e-01
     5946000000    1.247999594e-01   -3.146705627e-01
     5947000000    1.161578149e-01   -3.210428059e-01
     5948000000    1.125750914e-01   -3.278466165e-01
     5949000000    1.143222451e-01   -3.304682374e-01
     5950000000    1.019579098e-01   -3.426595628e-01
     5951000000    9.829657525e-02   -3.425753117e-01
     5952000000    9.606646001e-02   -3.507095277e-01
     5953000000    7.363199443e-02   -3.520644605e-01
     5954000000    9.406816214e-02   -3.544777632e-01
     5955000000    7.806746662e-02   -3.622509837e-01
     5956000000    8.144783229e-02   -3.636235595e-01
     5957000000    7.063914835e-02   -3.770214021e-01
     5958000000    5.176356435e-02   -3.769790828e-01
     5959000000    6.058844924e-02   -3.811782002e-01
     5960000000    5.663134530e-02   -3.832061887e-01
     5961000000    4.276164249e-02   -3.854002059e-01
     5962000000    3.967669606e-02   -3.967781067e-01
     5963000000    1.718656160e-02   -4.000512064e-01
     5964000000    3.359391168e-02   -3.915646374e-01
     5965000000    1.452806965e-02   -4.094646573e-01
     5966000000    1.698182896e-02   -3.994780481e-01
     5967000000   -5.112905055e-03   -4.102750719e-01
     5968000000   -2.618694305e-02   -4.144026935e-01
     5969000000    4.893150181e-04   -4.075718820e-01
     5970000000   -1.912127063e-02   -4.149152935e-01
     5971000000   -2.638548054e-02   -4.149558246e-01
     5972000000   -1.822187565e-02   -4.141481817e-01
     5973000000   -7.050643861e-02   -4.271313250e-01
     5974000000   -1.666495763e-02   -4.055604637e-01
     5975000000   -5.725494027e-02   -4.214625359e-01
     5976000000   -5.716438964e-02   -4.197660685e-01
     5977000000   -6.131006032e-02   -4.197864830e-01
     5978000000   -7.117652148e-02   -4.216019809e-01
     5979000000   -6.909117103e-02   -4.184484780e-01
     5980000000   -7.593824714e-02   -4.155440629e-01
     5981000000   -1.263554096e-01   -4.274164736e-01
     5982000000   -1.017763317e-01   -4.230242372e-01
     5983000000   -1.030244008e-01   -4.204896092e-01
     5984000000   -1.276414245e-01   -4.231640100e-01
     5985000000   -1.334109604e-01   -4.224124849e-01
     5986000000   -1.334419250e-01   -4.202475548e-01
     5987000000   -1.482470483e-01   -4.243187308e-01
     5988000000   -1.455909163e-01   -4.162677824e-01
     5989000000   -1.589751542e-01   -4.156886339e-01
     5990000000   -1.584085077e-01   -4.136334062e-01
     5991000000   -1.813159883e-01   -4.179159403e-01
     5992000000   -1.620798409e-01   -4.050850868e-01
     5993000000   -1.935364157e-01   -4.123156071e-01
     5994000000   -1.784191579e-01   -3.951663077e-01
     5995000000   -2.106010616e-01   -4.103702605e-01
     5996000000   -2.191658616e-01   -4.076130390e-01
     5997000000   -2.106552273e-01   -4.034539461e-01
     5998000000   -2.132824659e-01   -3.971062005e-01
     5999000000   -2.106026560e-01   -3.832176924e-01
     6000000000   -2.296885252e-01   -3.916457593e-01
     6001000000   -2.535437346e-01   -3.957858980e-01
     6002000000   -2.402888536e-01   -3.845870793e-01
     6003000000   -2.522828281e-01   -3.840196729e-01
     6004000000   -2.644754648e-01   -3.781146705e-01
     6005000000   -2.795600593e-01   -3.805109859e-01
     6006000000   -2.759393156e-01   -3.772709966e-01
     6007000000   -2.725059986e-01   -3.675825596e-01
     6008000000   -2.944242358e-01   -3.650610149e-01
     6009000000   -3.044068217e-01   -3.553304076e-01
     6010000000   -3.067433536e-01   -3.643968999e-01
     6011000000   -3.179217279e-01   -3.504796922e-01
     6012000000   -3.115556538e-01   -3.388105631e-01
     6013000000   -3.274217546e-01   -3.402860165e-01
     6014000000   -3.215857446e-01   -3.246440291e-01
     6015000000   -3.363085091e-01   -3.321876228e-01
     6016000000   -3.325073123e-01   -3.250299096e-01
     6017000000   -3.506305814e-01   -3.154161274e-01
     6018000000   -3.526519537e-01   -3.117783964e-01
     6019000000   -3.597136736e-01   -3.001130819e-01
     6020000000   -3.655318916e-01   -3.052951396e-01
     6021000000   -3.631122708e-01   -2.975344658e-01
     6022000000   -3.734627664e-01   -2.816001475e-01
     6023000000   -3.772512376e-01   -2.819907963e-01
     6024000000   -3.821832836e-01   -2.751333416e-01
     6025000000   -3.845091164e-01   -2.709430456e-01
     6026000000   -3.970239460e-01   -2.639510930e-01
     6027000000   -3.897355795e-01   -2.452308238e-01
     6028000000   -3.993861675e-01   -2.476176322e-01
     6029000000   -4.003580511e-01   -2.346196920e-01
     6030000000   -4.082641602e-01   -2.322864532e-01
     6031000000   -4.150759578e-01   -2.322585434e-01
     6032000000   -4.105635583e-01   -2.106282860e-01
     6033000000   -4.198560417e-01   -2.085998505e-01
     6034000000   -4.175363183e-01   -1.986342072e-01
     6035000000   -4.213105738e-01   -1.956452131e-01
     6036000000   -4.280452132e-01   -1.912492365e-01
     6037000000   -4.278529882e-01   -1.757794172e-01
     6038000000   -4.295310080e-01   -1.680074334e-01
     6039000000   -4.342538118e-01   -1.637853682e-01
     6040000000   -4.361609817e-01   -1.587307304e-01
     6041000000   -4.367328584e-01   -1.488536447e-01
     6042000000   -4.384376407e-01   -1.320638210e-01
     6043000000   -4.403946400e-01   -1.318260729e-01
     6044000000   -4.429024756e-01   -1.261352301e-01
     6045000000   -4.412080050e-01   -1.144192442e-01
     6046000000   -4.406159818e-01   -1.071058959e-01
     6047000000   -4.447881281e-01   -9.483919293e-02
     6048000000   -4.423644543e-01   -8.949795365e-02
     6049000000   -4.431037307e-01   -8.627326787e-02
     6050000000   -4.447649419e-01   -7.586778700e-02
     6051000000   -4.443176985e-01   -6.539649516e-02
     6052000000   -4.475530684e-01   -5.381553620e-02
     6053000000   -4.468548298e-01   -5.044574291e-02
     6054000000   -4.405749142e-01   -4.664919898e-02
     6055000000   -4.450603127e-01   -3.287713602e-02
     6056000000   -4.429213703e-01   -2.714791894e-02
     6057000000   -4.481174052e-01   -9.383302182e-03
     6058000000   -4.390504360e-01   -1.415705588e-02
     6059000000   -4.394654930e-01   -3.710174002e-03
     6060000000   -4.420124888e-01    6.345556118e-03
     6061000000   -4.364728332e-01    1.361667924e-02
     6062000000   -4.419644475e-01    2.857503667e-02
     6063000000   -4.348985851e-01    2.876707725e-02
     6064000000   -4.327063560e-01    3.729925305e-02
     6065000000   -4.367609918e-01    4.714881629e-02
     6066000000   -4.325319827e-01    5.344716087e-02
     6067000000   -4.319573045e-01    6.662371755e-02
     6068000000   -4.248614013e-01    6.675296277e-02
     6069000000   -4.194736779e-01    7.435644418e-02
     6070000000   -4.271807373e-01    8.776579052e-02
     6071000000   -4.215796292e-01    9.179531783e-02
     6072000000   -4.197089374e-01    1.022268534e-01
     6073000000   -4.081073403e-01    1.071933210e-01
     6074000000   -4.114268720e-01    1.164961159e-01
     6075000000   -4.134238958e-01    1.254672110e-01
     6076000000   -4.032798111e-01    1.298916489e-01
     6077000000   -4.116871357e-01    1.423445642e-01
     6078000000   -3.972629607e-01    1.423975378e-01
     6079000000   -3.911045194e-01    1.520063877e-01
     6080000000   -3.991333842e-01    1.592310369e-01
     6081000000   -3.907778859e-01    1.662170887e-01
     6082000000   -3.934530914e-01    1.733113378e-01
     6083000000   -3.838093877e-01    1.779854894e-01
     6084000000   -3.768055439e-01    1.879032552e-01
     6085000000   -3.827394247e-01    1.924323291e-01
     6086000000   -3.747990727e-01    2.004893720e-01
     6087000000   -3.636900485e-01    2.098685503e-01
     6088000000   -3.619793952e-01    2.123211324e-01
     6089000000   -3.560486436e-01    2.207393050e-01
     6090000000   -3.604844511e-01    2.267422229e-01
     6091000000   -3.490574062e-01    2.339674234e-01
     6092000000   -3.403491080e-01    2.430092394e-01
     6093000000   -3.370603919e-01    2.450794131e-01
     6094000000   -3.199686706e-01    2.516020238e-01
     6095000000   -3.380623758e-01    2.570961714e-01
     6096000000   -3.230102658e-01    2.677788138e-01
     6097000000   -3.128341436e-01    2.734946012e-01
     6098000000   -3.203910291e-01    2.740096748e-01
     6099000000   -3.000378907e-01    2.836972773e-01
     6100000000   -3.154836297e-01    2.894693315e-01
     6101000000   -3.032679856e-01    2.865646780e-01
     6102000000   -2.818182707e-01    3.014991879e-01
     6103000000   -2.832819521e-01    3.018773496e-01
     6104000000   -2.738966644e-01    3.089917302e-01
     6105000000   -2.825203836e-01    3.180630803e-01
     6106000000   -2.600783408e-01    3.234835863e-01
     6107000000   -2.590397000e-01    3.235962391e-01
     6108000000   -2.583759129e-01    3.240973353e-01
     6109000000   -2.356009185e-01    3.346880376e-01
     6110000000   -2.526614368e-01    3.405976593e-01
     6111000000   -2.272429764e-01    3.432035744e-01
     6112000000   -2.170107812e-01    3.521208167e-01
     6113000000   -2.223666012e-01    3.510249257e-01
     6114000000   -2.021958530e-01    3.582370281e-01
     6115000000   -2.041797638e-01    3.644647300e-01
     6116000000   -1.987433583e-01    3.620099425e-01
     6117000000   -1.691363305e-01    3.761743605e-01
     6118000000   -1.999969184e-01    3.615276217e-01
     6119000000   -1.699907929e-01    3.779131174e-01
     6120000000   -1.777971238e-01    3.764427900e-01
     6121000000   -1.605448127e-01    3.802315295e-01
     6122000000   -1.483823657e-01    3.862097561e-01
     6123000000   -1.528978795e-01    3.853277266e-01
     6124000000   -1.385166645e-01    3.885369897e-01
     6125000000   -1.363384128e-01    3.931505978e-01
     6126000000   -1.252438575e-01    3.952235878e-01
     6127000000   -1.069452837e-01    3.997614384e-01
     6128000000   -1.246006489e-01    3.953385353e-01
     6129000000   -1.055298895e-01    4.002186060e-01
     6130000000   -9.333328158e-02    4.120348990e-01
     6131000000   -8.633136004e-02    4.054462016e-01
     6132000000   -6.638628244e-02    4.208897352e-01
     6133000000   -7.105777413e-02    4.052092731e-01
     6134000000   -7.137762755e-02    4.067359567e-01
     6135000000   -4.895782471e-02    4.174132943e-01
     6136000000   -4.429271072e-02    4.143144190e-01
     6137000000   -3.278144822e-02    4.160118103e-01
     6138000000   -3.653899580e-02    4.150986075e-01
     6139000000   -2.424396574e-02    4.154695868e-01
     6140000000   -8.565518074e-03    4.243702590e-01
     6141000000   -1.017688774e-03    4.202418029e-01
     6142000000    1.761212572e-02    4.309406281e-01
     6143000000   -7.173426449e-03    4.110683501e-01
     6144000000    1.395113673e-02    4.222407043e-01
     6145000000    3.168719262e-02    4.272488356e-01
     6146000000    2.661525458e-02    4.176550210e-01
     6147000000    5.904863402e-02    4.317206144e-01
     6148000000    4.331012070e-02    4.167917371e-01
     6149000000    5.360781029e-02    4.175119400e-01
     6150000000    6.392049789e-02    4.262159169e-01
     6151000000    8.207350224e-02    4.237310588e-01
     6152000000    7.660500705e-02    4.144797921e-01
     6153000000    8.193627745e-02    4.106070697e-01
     6154000000    9.525553137e-02    4.167246521e-01
     6155000000    1.137826890e-01    4.249313176e-01
     6156000000    1.044784263e-01    4.050184786e-01
     6157000000    1.357576698e-01    4.265759587e-01
     6158000000    1.134241447e-01    4.033808112e-01
     6159000000    1.282303929e-01    4.080169499e-01
     6160000000    1.388322562e-01    4.158200920e-01
     6161000000    1.475450248e-01    4.083946943e-01
     6162000000    1.626379341e-01    4.114041924e-01
     6163000000    1.582800150e-01    4.020816684e-01
     6164000000    1.658197343e-01    3.964099884e-01
     6165000000    1.757155806e-01    4.059028029e-01
     6166000000    1.801737547e-01    3.889786601e-01
     6167000000    1.914513856e-01    3.964320719e-01
     6168000000    1.956840456e-01    3.876571953e-01
     6169000000    1.992866099e-01    3.891709149e-01
     6170000000    2.110220045e-01    3.955025971e-01
     6171000000    2.144312859e-01    3.808984756e-01
     6172000000    2.263366282e-01    3.857876360e-01
     6173000000    2.264074832e-01    3.702668846e-01
     6174000000    2.365672588e-01    3.793282807e-01
     6175000000    2.446068078e-01    3.801920414e-01
     6176000000    2.479464561e-01    3.680734932e-01
     6177000000    2.577973008e-01    3.657673895e-01
     6178000000    2.610168755e-01    3.661914468e-01
     6179000000    2.639280558e-01    3.551319540e-01
     6180000000    2.779718339e-01    3.629378080e-01
     6181000000    2.800281942e-01    3.478659391e-01
     6182000000    2.877142429e-01    3.491901457e-01
     6183000000    2.899481654e-01    3.432261050e-01
     6184000000    2.969159186e-01    3.449513912e-01
     6185000000    3.036145568e-01    3.415949643e-01
     6186000000    3.084430397e-01    3.311153352e-01
     6187000000    3.155956268e-01    3.298942447e-01
     6188000000    3.168539107e-01    3.206182122e-01
     6189000000    3.270862699e-01    3.292938173e-01
     6190000000    3.312962949e-01    3.202499151e-01
     6191000000    3.357351124e-01    3.097528815e-01
     6192000000    3.407482207e-01    3.100711107e-01
     6193000000    3.453828394e-01    3.053321838e-01
     6194000000    3.506549001e-01    2.999870777e-01
     6195000000    3.567120433e-01    3.002789319e-01
     6196000000    3.631380200e-01    2.841269672e-01
     6197000000    3.651447296e-01    2.848356068e-01
     6198000000    3.698807657e-01    2.839736640e-01
     6199000000    3.741611540e-01    2.784060240e-01
     6200000000    3.766933978e-01    2.773853242e-01
     6201000000    3.886498213e-01    2.568469048e-01
     6202000000    3.881529272e-01    2.570410371e-01
     6203000000    3.927982450e-01    2.542559803e-01
     6204000000    3.980306685e-01    2.499375790e-01
     6205000000    3.982254863e-01    2.459470928e-01
     6206000000    4.113007486e-01    2.352970541e-01
     6207000000    4.122675359e-01    2.332727164e-01
     6208000000    4.122083485e-01    2.243598402e-01
     6209000000    4.137565196e-01    2.231249809e-01
     6210000000    4.217123389e-01    2.179259956e-01
     6211000000    4.295545816e-01    2.050219476e-01
     6212000000    4.298434854e-01    2.031885982e-01
     6213000000    4.309156835e-01    1.992820650e-01
     6214000000    4.380303323e-01    1.942270547e-01
     6215000000    4.403602481e-01    1.880154312e-01
     6216000000    4.458684325e-01    1.782963723e-01
     6217000000    4.463304281e-01    1.738307625e-01
     6218000000    4.468114376e-01    1.693177819e-01
     6219000000    4.570289254e-01    1.647478640e-01
     6220000000    4.493880868e-01    1.568433642e-01
     6221000000    4.650727808e-01    1.511630714e-01
     6222000000    4.646476805e-01    1.458625793e-01
     6223000000    4.558615685e-01    1.399204731e-01
     6224000000    4.722229242e-01    1.358595788e-01
     6225000000    4.683395028e-01    1.263930798e-01
     6226000000    4.785560071e-01    1.191741303e-01
     6227000000    4.764936864e-01    1.169751137e-01
     6228000000    4.779121280e-01    1.090871692e-01
     6229000000    4.832857549e-01    1.042982042e-01
     6230000000    4.888115227e-01    1.012761965e-01
     6231000000    4.962948859e-01    8.669018745e-02
     6232000000    4.947591424e-01    8.595735580e-02
     6233000000    4.853975177e-01    7.749514282e-02
     6234000000    4.980809391e-01    7.306782901e-02
     6235000000    4.940307438e-01    6.473619491e-02
     6236000000    5.055925250e-01    5.813817307e-02
     6237000000    4.978925288e-01    5.212046206e-02
     6238000000    4.937349856e-01    4.008468613e-02
     6239000000    5.113027692e-01    4.274930432e-02
     6240000000    5.042129755e-01    3.111180663e-02
     6241000000    5.011848211e-01    1.487789117e-02
     6242000000    5.152362585e-01    2.708027139e-02
     6243000000    5.051416159e-01    1.232863776e-02
     6244000000    5.170326233e-01    1.289329864e-02
     6245000000    5.116797090e-01   -2.351598814e-03
     6246000000    5.168706775e-01   -9.992203675e-03
     6247000000    5.175670385e-01   -9.489474818e-03
     6248000000    5.094045997e-01   -2.755259722e-02
     6249000000    5.272537470e-01   -1.714146137e-02
     6250000000    5.147304535e-01   -4.152056202e-02
     6251000000    5.224646330e-01   -4.526816308e-02
     6252000000    5.192751884e-01   -4.272099212e-02
     6253000000    5.164093375e-01   -5.465499312e-02
     6254000000    5.214461684e-01   -5.857506394e-02
     6255000000    5.250071883e-01   -6.562885642e-02
     6256000000    5.228406787e-01   -7.740755379e-02
     6257000000    5.236423016e-01   -7.764919102e-02
     6258000000    5.179341435e-01   -9.134566039e-02
     6259000000    5.287853479e-01   -9.093852341e-02
     6260000000    5.232917070e-01   -1.014252901e-01
     6261000000    5.149317980e-01   -1.206082031e-01
     6262000000    5.240086317e-01   -1.125628576e-01
     6263000000    5.184420943e-01   -1.277975887e-01
     6264000000    5.285781622e-01   -1.270805746e-01
     6265000000    5.205551386e-01   -1.452260762e-01
     6266000000    5.240215063e-01   -1.414172798e-01
     6267000000    5.277372003e-01   -1.310675889e-01
     6268000000    5.107111931e-01   -1.734383851e-01
     6269000000    5.263535380e-01   -1.564302891e-01
     6270000000    5.210243464e-01   -1.683180034e-01
     6271000000    5.164578557e-01   -1.819791347e-01
     6272000000    5.179816484e-01   -1.816280484e-01
     6273000000    5.175103545e-01   -1.928110570e-01
     6274000000    5.227507353e-01   -1.825020164e-01
     6275000000    5.190670490e-01   -1.991510540e-01
     6276000000    5.055575371e-01   -2.243238539e-01
     6277000000    5.153146386e-01   -2.005597800e-01
     6278000000    5.154755116e-01   -2.157864869e-01
     6279000000    5.075909495e-01   -2.263997495e-01
     6280000000    5.009956956e-01   -2.484640181e-01
     6281000000    5.080245137e-01   -2.371143550e-01
     6282000000    5.065134764e-01   -2.373853475e-01
     6283000000    4.949693084e-01   -2.783065736e-01
     6284000000    4.956298172e-01   -2.572807670e-01
     6285000000    5.040753484e-01   -2.604967654e-01
     6286000000    4.837009013e-01   -2.950200140e-01
     6287000000    5.016245842e-01   -2.702102065e-01
     6288000000    4.907186925e-01   -2.940696180e-01
     6289000000    4.763792455e-01   -3.087618053e-01
     6290000000    4.851372242e-01   -2.899881899e-01
     6291000000    4.789013565e-01   -3.191627860e-01
     6292000000    4.900386333e-01   -2.883073986e-01
     6293000000    4.751039147e-01   -3.345188498e-01
     6294000000    4.635310173e-01   -3.397079408e-01
     6295000000    4.673955739e-01   -3.413379788e-01
     6296000000    4.699678421e-01   -3.331489861e-01
     6297000000    4.683596194e-01   -3.388209045e-01
     6298000000    4.648649096e-01   -3.615115285e-01
     6299000000    4.540567696e-01   -3.627445996e-01
     6300000000    4.477666914e-01   -3.758229017e-01
