#  HZ   S   RI   R     50.00 
! Rohde & Schwarz Vector Network Analyzer 
! Rohde-Schwarz,ZNB20-2Port,1311601062101736,3.50
! Created: UTC 3/2/2026, 5:03:50 PM
! freq[Hz]                re:S11                  im:S11
 5.300000000000000E9    -3.372513117819542E-1   -7.339540790787231E-1
 5.301000000000000E9    -3.437820303745968E-1   -7.314050473689406E-1
 5.302000000000000E9    -3.502111399173415E-1   -7.288833929407694E-1
 5.303000000000000E9    -3.565604085136845E-1   -7.263311419873159E-1
 5.304000000000000E9    -3.628507689846597E-1   -7.237163112567528E-1
 5.305000000000000E9    -3.690809058363073E-1   -7.210405400851368E-1
 5.306000000000000E9    -3.752547333465400E-1   -7.183042322205933E-1
 5.307000000000000E9    -3.813535336977617E-1   -7.155276473615464E-1
 5.308000000000000E9    -3.873729114439746E-1   -7.127139952711689E-1
 5.309000000000000E9    -3.933385172947916E-1   -7.098690492917650E-1
 5.310000000000000E9    -3.992444289228766E-1   -7.069884209347946E-1
 5.311000000000000E9    -4.050890244889233E-1   -7.040780208111831E-1
 5.312000000000000E9    -4.108810304660539E-1   -7.011471644140476E-1
 5.313000000000000E9    -4.166520667854999E-1   -6.981729975252047E-1
 5.314000000000000E9    -4.223791961036406E-1   -6.951887404706280E-1
 5.315000000000000E9    -4.280231039485566E-1   -6.921369442645701E-1
 5.316000000000000E9    -4.336422795366361E-1   -6.891074616415516E-1
 5.317000000000000E9    -4.392432024969597E-1   -6.860889342405081E-1
 5.318000000000000E9    -4.448052672455056E-1   -6.829969138451494E-1
 5.319000000000000E9    -4.503321827311281E-1   -6.798137706848897E-1
 5.320000000000000E9    -4.558279887163546E-1   -6.766342343730979E-1
 5.321000000000000E9    -4.612705054766023E-1   -6.734074742617844E-1
 5.322000000000000E9    -4.666692921838012E-1   -6.701402928844618E-1
 5.323000000000000E9    -4.720013705972620E-1   -6.668549185764270E-1
 5.324000000000000E9    -4.773015552525366E-1   -6.635356124234172E-1
 5.325000000000000E9    -4.825686838016749E-1   -6.601896266206018E-1
 5.326000000000000E9    -4.878410306938151E-1   -6.568384841504709E-1
 5.327000000000000E9    -4.930959270117657E-1   -6.534558207530905E-1
 5.328000000000000E9    -4.983330566221594E-1   -6.499846401973938E-1
 5.329000000000000E9    -5.035268331026250E-1   -6.464899917820573E-1
 5.330000000000000E9    -5.086708503643464E-1   -6.429280957234271E-1
 5.331000000000000E9    -5.137926812880320E-1   -6.393192319102649E-1
 5.332000000000000E9    -5.188404319704674E-1   -6.356349880759909E-1
 5.333000000000000E9    -5.238271186242269E-1   -6.319182904970738E-1
 5.334000000000000E9    -5.287733305156288E-1   -6.281454385995917E-1
 5.335000000000000E9    -5.336388381268516E-1   -6.243555071504708E-1
 5.336000000000000E9    -5.384856835371121E-1   -6.205783276048774E-1
 5.337000000000000E9    -5.432627121676744E-1   -6.167121166163964E-1
 5.338000000000000E9    -5.479867912432221E-1   -6.128348099924700E-1
 5.339000000000000E9    -5.526674610698191E-1   -6.089095908568239E-1
 5.340000000000000E9    -5.572942279845949E-1   -6.049396960122698E-1
 5.341000000000000E9    -5.618678947121137E-1   -6.009364689554979E-1
 5.342000000000000E9    -5.663838826667703E-1   -5.968940668315899E-1
 5.343000000000000E9    -5.708408785409109E-1   -5.928365950095424E-1
 5.344000000000000E9    -5.751939017922025E-1   -5.887673684179882E-1
 5.345000000000000E9    -5.795228158978378E-1   -5.846647015246844E-1
 5.346000000000000E9    -5.837849885423217E-1   -5.805842008955261E-1
 5.347000000000000E9    -5.879841405677343E-1   -5.765075651039239E-1
 5.348000000000000E9    -5.921673750258053E-1   -5.724416531358604E-1
 5.349000000000000E9    -5.963246152542035E-1   -5.683767151537038E-1
 5.350000000000000E9    -6.004330573240674E-1   -5.642585482822234E-1
 5.351000000000000E9    -6.045267039048149E-1   -5.601686995181798E-1
 5.352000000000000E9    -6.085601405564158E-1   -5.560530622824342E-1
 5.353000000000000E9    -6.125774634307077E-1   -5.519027613676928E-1
 5.354000000000000E9    -6.165948198822490E-1   -5.477264672126561E-1
 5.355000000000000E9    -6.205650039937557E-1   -5.435388130126432E-1
 5.356000000000000E9    -6.245275707360155E-1   -5.393260355597840E-1
 5.357000000000000E9    -6.284274241684880E-1   -5.350457846754041E-1
 5.358000000000000E9    -6.322706488400500E-1   -5.307133512793937E-1
 5.359000000000000E9    -6.360932871878429E-1   -5.263616371606712E-1
 5.360000000000000E9    -6.397960922579716E-1   -5.219406983073277E-1
 5.361000000000000E9    -6.434736402537822E-1   -5.175454944573026E-1
 5.362000000000000E9    -6.470697423564168E-1   -5.131625424668459E-1
 5.363000000000000E9    -6.506218580294303E-1   -5.087480405879363E-1
 5.364000000000000E9    -6.541389337816453E-1   -5.043123556126909E-1
 5.365000000000000E9    -6.576108464426756E-1   -4.998878230319149E-1
 5.366000000000000E9    -6.610520610704490E-1   -4.954042733212965E-1
 5.367000000000000E9    -6.644100299664470E-1   -4.909133916688009E-1
 5.368000000000000E9    -6.677120337154112E-1   -4.864114090499286E-1
 5.369000000000000E9    -6.709670374345611E-1   -4.819079115248004E-1
 5.370000000000000E9    -6.741527911965425E-1   -4.774080127097685E-1
 5.371000000000000E9    -6.772958566152281E-1   -4.729269966002445E-1
 5.372000000000000E9    -6.804196679647964E-1   -4.684915675683949E-1
 5.373000000000000E9    -6.835250441279407E-1   -4.640461331407044E-1
 5.374000000000000E9    -6.866206583561262E-1   -4.595892523282968E-1
 5.375000000000000E9    -6.897282960798446E-1   -4.551252187918246E-1
 5.376000000000000E9    -6.927788744141112E-1   -4.506513869880939E-1
 5.377000000000000E9    -6.958674302549784E-1   -4.461288378383607E-1
 5.378000000000000E9    -6.988656925373327E-1   -4.415593256631655E-1
 5.379000000000000E9    -7.018457310741200E-1   -4.369855528822107E-1
 5.380000000000000E9    -7.047960519922405E-1   -4.323877049857763E-1
 5.381000000000000E9    -7.076683341702713E-1   -4.277506049176408E-1
 5.382000000000000E9    -7.105322383666733E-1   -4.231428955628754E-1
 5.383000000000000E9    -7.133244024092296E-1   -4.185186532381533E-1
 5.384000000000000E9    -7.160873433678695E-1   -4.138859261675945E-1
 5.385000000000000E9    -7.188402800111033E-1   -4.092398532979552E-1
 5.386000000000000E9    -7.215503915223934E-1   -4.045432883843423E-1
 5.387000000000000E9    -7.242316329799555E-1   -3.998286475091878E-1
 5.388000000000000E9    -7.268476900589604E-1   -3.951046900316121E-1
 5.389000000000000E9    -7.294051390237810E-1   -3.903760986016372E-1
 5.390000000000000E9    -7.319471696606129E-1   -3.856497101978081E-1
 5.391000000000000E9    -7.344163606301072E-1   -3.809096412433264E-1
 5.392000000000000E9    -7.368521908054315E-1   -3.762074893030396E-1
 5.393000000000000E9    -7.392842773669744E-1   -3.714952260506814E-1
 5.394000000000000E9    -7.416901743078861E-1   -3.667851124972655E-1
 5.395000000000000E9    -7.440714333835834E-1   -3.620529635720662E-1
 5.396000000000000E9    -7.463866110295939E-1   -3.573007913649464E-1
 5.397000000000000E9    -7.486957548932284E-1   -3.525270063708189E-1
 5.398000000000000E9    -7.509523983520241E-1   -3.477504714300416E-1
 5.399000000000000E9    -7.531822841025141E-1   -3.430068633207665E-1
 5.400000000000000E9    -7.553589386746837E-1   -3.382579802404670E-1
 5.401000000000000E9    -7.575158618867374E-1   -3.334991295982492E-1
 5.402000000000000E9    -7.596662125819278E-1   -3.287604295129328E-1
 5.403000000000000E9    -7.617854341228264E-1   -3.239932654784062E-1
 5.404000000000000E9    -7.638921041834799E-1   -3.191887588796453E-1
 5.405000000000000E9    -7.660007138058775E-1   -3.143566539525109E-1
 5.406000000000000E9    -7.680420738103202E-1   -3.094960656635959E-1
 5.407000000000000E9    -7.700374638289684E-1   -3.046319534980416E-1
 5.408000000000000E9    -7.719611869416219E-1   -2.997557543003786E-1
 5.409000000000000E9    -7.738858958982662E-1   -2.948672222136986E-1
 5.410000000000000E9    -7.757531823977085E-1   -2.899826991876430E-1
 5.411000000000000E9    -7.775687584009994E-1   -2.850888442559389E-1
 5.412000000000000E9    -7.793645257064977E-1   -2.802116013985265E-1
 5.413000000000000E9    -7.811081516827904E-1   -2.753343119478214E-1
 5.414000000000000E9    -7.828181459476368E-1   -2.704529586543988E-1
 5.415000000000000E9    -7.845405005929483E-1   -2.656050507943127E-1
 5.416000000000000E9    -7.861979343632706E-1   -2.607247602278188E-1
 5.417000000000000E9    -7.878387507308335E-1   -2.558365051708950E-1
 5.418000000000000E9    -7.894738394666205E-1   -2.509496423851756E-1
 5.419000000000000E9    -7.910611383662894E-1   -2.460433657418531E-1
 5.420000000000000E9    -7.926143953756883E-1   -2.411157806834117E-1
 5.421000000000000E9    -7.941394987881446E-1   -2.361705248498204E-1
 5.422000000000000E9    -7.956028177072054E-1   -2.312064413734677E-1
 5.423000000000000E9    -7.970131582814989E-1   -2.261969568741161E-1
 5.424000000000000E9    -7.983506217062271E-1   -2.211826719436771E-1
 5.425000000000000E9    -7.996373375895891E-1   -2.161546756434465E-1
 5.426000000000000E9    -8.008156211617625E-1   -2.111450409358127E-1
 5.427000000000000E9    -8.019349748239638E-1   -2.061392023925159E-1
 5.428000000000000E9    -8.029806722867424E-1   -2.011675615131202E-1
 5.429000000000000E9    -8.039850257840957E-1   -1.962460383143574E-1
 5.430000000000000E9    -8.049634060734796E-1   -1.913180343388044E-1
 5.431000000000000E9    -8.058741331448928E-1   -1.864745470416244E-1
 5.432000000000000E9    -8.067716510458294E-1   -1.816491574561909E-1
 5.433000000000000E9    -8.077057896591396E-1   -1.768547841780636E-1
 5.434000000000000E9    -8.085848561787972E-1   -1.720709502803711E-1
 5.435000000000000E9    -8.094949334511118E-1   -1.672780496452116E-1
 5.436000000000000E9    -8.103676125624062E-1   -1.624928861802706E-1
 5.437000000000000E9    -8.112602805195911E-1   -1.576704234621850E-1
 5.438000000000000E9    -8.121390130717939E-1   -1.528239718587183E-1
 5.439000000000000E9    -8.129932378544689E-1   -1.479348366873085E-1
 5.440000000000000E9    -8.137931666293594E-1   -1.430239751292270E-1
 5.441000000000000E9    -8.145908716668033E-1   -1.380751291820036E-1
 5.442000000000000E9    -8.153194077737619E-1   -1.330931892722442E-1
 5.443000000000000E9    -8.159952394189549E-1   -1.280915137776738E-1
 5.444000000000000E9    -8.166159266358599E-1   -1.230759369763928E-1
 5.445000000000000E9    -8.171709643432508E-1   -1.180420021046592E-1
 5.446000000000000E9    -8.176623523000769E-1   -1.130312243793933E-1
 5.447000000000000E9    -8.181264799396802E-1   -1.080367871722610E-1
 5.448000000000000E9    -8.185541331840134E-1   -1.030321440275633E-1
 5.449000000000000E9    -8.189532911247905E-1   -9.804868537370970E-2
 5.450000000000000E9    -8.193184814295623E-1   -9.306323187375651E-2
 5.451000000000000E9    -8.196472879746646E-1   -8.804405631241050E-2
 5.452000000000000E9    -8.199283590043698E-1   -8.303682135384800E-2
 5.453000000000000E9    -8.201332372275874E-1   -7.803184209440323E-2
 5.454000000000000E9    -8.203222941248224E-1   -7.305391759082669E-2
 5.455000000000000E9    -8.204540562840885E-1   -6.809436151284522E-2
 5.456000000000000E9    -8.205626611638975E-1   -6.315013480836867E-2
 5.457000000000000E9    -8.206449248739086E-1   -5.822759718195908E-2
 5.458000000000000E9    -8.207219514946122E-1   -5.335351704897622E-2
 5.459000000000000E9    -8.208036924431826E-1   -4.848678077986756E-2
 5.460000000000000E9    -8.208854021128006E-1   -4.361723400159102E-2
 5.461000000000000E9    -8.209745274681878E-1   -3.872969348326521E-2
 5.462000000000000E9    -8.210423149269002E-1   -3.381651886293826E-2
 5.463000000000000E9    -8.210917391822049E-1   -2.888120219062583E-2
 5.464000000000000E9    -8.210797998060365E-1   -2.391548369718129E-2
 5.465000000000000E9    -8.210410469839527E-1   -1.894667845478085E-2
 5.466000000000000E9    -8.209343413271648E-1   -1.395715884911689E-2
 5.467000000000000E9    -8.208110502182480E-1   -8.986308049059847E-3
 5.468000000000000E9    -8.206374168709780E-1   -4.001620690653671E-3
 5.469000000000000E9    -8.204195554716768E-1    9.902348903605546E-4
 5.470000000000000E9    -8.201674972380041E-1    5.958344399253548E-3
 5.471000000000000E9    -8.198674663732981E-1    1.095502081831063E-2
 5.472000000000000E9    -8.194935486510292E-1    1.589734775416166E-2
 5.473000000000000E9    -8.191145453709634E-1    2.087690711490622E-2
 5.474000000000000E9    -8.186886955254588E-1    2.583201439528075E-2
 5.475000000000000E9    -8.182292570718284E-1    3.074309989435296E-2
 5.476000000000000E9    -8.177118470640646E-1    3.564979226266586E-2
 5.477000000000000E9    -8.171568507274583E-1    4.051757057502128E-2
 5.478000000000000E9    -8.165949158154643E-1    4.536655227655904E-2
 5.479000000000000E9    -8.160065751721551E-1    5.022058389301665E-2
 5.480000000000000E9    -8.154040176184100E-1    5.503350664235176E-2
 5.481000000000000E9    -8.147520265943844E-1    5.985855735644170E-2
 5.482000000000000E9    -8.141052065532176E-1    6.465822272256234E-2
 5.483000000000000E9    -8.134266252644269E-1    6.943914277606481E-2
 5.484000000000000E9    -8.127318503105880E-1    7.423308621778510E-2
 5.485000000000000E9    -8.120308431233005E-1    7.897444674986749E-2
 5.486000000000000E9    -8.113046608521657E-1    8.374825838511346E-2
 5.487000000000000E9    -8.105535908981611E-1    8.850261866593831E-2
 5.488000000000000E9    -8.097717058390576E-1    9.329190342062321E-2
 5.489000000000000E9    -8.089230434934894E-1    9.808948486446917E-2
 5.490000000000000E9    -8.080731083536037E-1    1.028617117810000E-1
 5.491000000000000E9    -8.071435920625968E-1    1.076702657165895E-1
 5.492000000000000E9    -8.062038641491289E-1    1.124723297054291E-1
 5.493000000000000E9    -8.051895804982868E-1    1.172496438751440E-1
 5.494000000000000E9    -8.041651816529157E-1    1.220009306744454E-1
 5.495000000000000E9    -8.030948398330807E-1    1.267215165866741E-1
 5.496000000000000E9    -8.020127857120215E-1    1.314531535118889E-1
 5.497000000000000E9    -8.009121198382593E-1    1.361668120348130E-1
 5.498000000000000E9    -7.998014604747081E-1    1.408696711076951E-1
 5.499000000000000E9    -7.986393778389070E-1    1.455606394122413E-1
 5.500000000000000E9    -7.974768611363618E-1    1.502425064191714E-1
 5.501000000000000E9    -7.962618802381782E-1    1.549206348233501E-1
 5.502000000000000E9    -7.950388330129273E-1    1.595821144641821E-1
 5.503000000000000E9    -7.937898712292077E-1    1.642289789798348E-1
 5.504000000000000E9    -7.925001988082029E-1    1.688442816417517E-1
 5.505000000000000E9    -7.912320521429991E-1    1.734787842251236E-1
 5.506000000000000E9    -7.899474623433501E-1    1.781082446097817E-1
 5.507000000000000E9    -7.886567063831407E-1    1.827424642778141E-1
 5.508000000000000E9    -7.873498721548512E-1    1.873849403729780E-1
 5.509000000000000E9    -7.860400845181158E-1    1.920250525519112E-1
 5.510000000000000E9    -7.847266796154934E-1    1.966799921982623E-1
 5.511000000000000E9    -7.833690882570582E-1    2.013570410081255E-1
 5.512000000000000E9    -7.819896721549667E-1    2.060529810221421E-1
 5.513000000000000E9    -7.805391235595297E-1    2.107767727504694E-1
 5.514000000000000E9    -7.790624486848572E-1    2.155221744528954E-1
 5.515000000000000E9    -7.775451176443557E-1    2.202549750842556E-1
 5.516000000000000E9    -7.759446148777380E-1    2.249664256778783E-1
 5.517000000000000E9    -7.743149479414810E-1    2.296718409511551E-1
 5.518000000000000E9    -7.726370874148567E-1    2.343346685576445E-1
 5.519000000000000E9    -7.709288645138337E-1    2.389988350116390E-1
 5.520000000000000E9    -7.691645931311715E-1    2.436080703601028E-1
 5.521000000000000E9    -7.673614609009242E-1    2.481977978161996E-1
 5.522000000000000E9    -7.655193944849782E-1    2.527784239233375E-1
 5.523000000000000E9    -7.636542517030595E-1    2.573223229675898E-1
 5.524000000000000E9    -7.617477456448265E-1    2.618341340725466E-1
 5.525000000000000E9    -7.598296816239837E-1    2.663316515664752E-1
 5.526000000000000E9    -7.578814879471468E-1    2.707809971408344E-1
 5.527000000000000E9    -7.559243120236093E-1    2.752075628760560E-1
 5.528000000000000E9    -7.539460544992748E-1    2.796024106383624E-1
 5.529000000000000E9    -7.519465368715248E-1    2.839724959925765E-1
 5.530000000000000E9    -7.499429409902775E-1    2.883267600974789E-1
 5.531000000000000E9    -7.479301585491357E-1    2.926514097572531E-1
 5.532000000000000E9    -7.459194646330448E-1    2.969679420201589E-1
 5.533000000000000E9    -7.438685807638484E-1    3.012860719956893E-1
 5.534000000000000E9    -7.417632417015885E-1    3.055870090214423E-1
 5.535000000000000E9    -7.396286066244504E-1    3.098928487231353E-1
 5.536000000000000E9    -7.374931209266479E-1    3.140993641423686E-1
 5.537000000000000E9    -7.353351121843463E-1    3.183397274933422E-1
 5.538000000000000E9    -7.331597449586588E-1    3.225140471920274E-1
 5.539000000000000E9    -7.309734635680406E-1    3.266994827439033E-1
 5.540000000000000E9    -7.287883245439172E-1    3.308912787329765E-1
 5.541000000000000E9    -7.265336314871198E-1    3.350429535199439E-1
 5.542000000000000E9    -7.242566023341245E-1    3.392031855150937E-1
 5.543000000000000E9    -7.219544391925130E-1    3.433358959044689E-1
 5.544000000000000E9    -7.196099955198410E-1    3.474226540466675E-1
 5.545000000000000E9    -7.172775492997010E-1    3.515491045747656E-1
 5.546000000000000E9    -7.149098764843321E-1    3.556024383794777E-1
 5.547000000000000E9    -7.125364509916355E-1    3.596777902679777E-1
 5.548000000000000E9    -7.100979170129966E-1    3.637671863815047E-1
 5.549000000000000E9    -7.076385014630096E-1    3.678207209770164E-1
 5.550000000000000E9    -7.051120314538901E-1    3.718896152861039E-1
 5.551000000000000E9    -7.025574383485527E-1    3.759253118234064E-1
 5.552000000000000E9    -6.999608118605749E-1    3.799466029174289E-1
 5.553000000000000E9    -6.972957850568632E-1    3.839406938461098E-1
 5.554000000000000E9    -6.946660519317394E-1    3.879158414851729E-1
 5.555000000000000E9    -6.919690181504156E-1    3.919011278830106E-1
 5.556000000000000E9    -6.892681000600944E-1    3.958349759604509E-1
 5.557000000000000E9    -6.864868572120154E-1    3.997487316470431E-1
 5.558000000000000E9    -6.837141921356462E-1    4.037066509795324E-1
 5.559000000000000E9    -6.808918865243416E-1    4.076123090136050E-1
 5.560000000000000E9    -6.779891142257068E-1    4.115172940257776E-1
 5.561000000000000E9    -6.750761583119009E-1    4.153669318363770E-1
 5.562000000000000E9    -6.721154402331263E-1    4.192252828802808E-1
 5.563000000000000E9    -6.691098610465276E-1    4.230558482249317E-1
 5.564000000000000E9    -6.660496602015883E-1    4.268547301094866E-1
 5.565000000000000E9    -6.629270084373512E-1    4.306203127919179E-1
 5.566000000000000E9    -6.597820877695428E-1    4.342917117881112E-1
 5.567000000000000E9    -6.566140510649111E-1    4.379450971125373E-1
 5.568000000000000E9    -6.534374763960207E-1    4.415257565248588E-1
 5.569000000000000E9    -6.502880209892591E-1    4.451237348597785E-1
 5.570000000000000E9    -6.471183578894513E-1    4.486832389016320E-1
 5.571000000000000E9    -6.439806497701143E-1    4.522154945981012E-1
 5.572000000000000E9    -6.408241474898767E-1    4.557515872683864E-1
 5.573000000000000E9    -6.376976754325417E-1    4.593011386407201E-1
 5.574000000000000E9    -6.345599918934540E-1    4.628448091233615E-1
 5.575000000000000E9    -6.313947063814780E-1    4.664468134756716E-1
 5.576000000000000E9    -6.281781724441244E-1    4.700439368860314E-1
 5.577000000000000E9    -6.249076283008332E-1    4.736512444081271E-1
 5.578000000000000E9    -6.215876908997112E-1    4.772315470437510E-1
 5.579000000000000E9    -6.181883845932509E-1    4.808048695626652E-1
 5.580000000000000E9    -6.147469337458343E-1    4.843462992354154E-1
 5.581000000000000E9    -6.112890283172524E-1    4.878727690442978E-1
 5.582000000000000E9    -6.077565502257330E-1    4.913589849970170E-1
 5.583000000000000E9    -6.042221330960477E-1    4.948053947672651E-1
 5.584000000000000E9    -6.006249505885026E-1    4.982109377179216E-1
 5.585000000000000E9    -5.969981099065642E-1    5.015779917292718E-1
 5.586000000000000E9    -5.933912693152662E-1    5.048792957409820E-1
 5.587000000000000E9    -5.897631292498609E-1    5.081901665384267E-1
 5.588000000000000E9    -5.861074492936402E-1    5.114733646819734E-1
 5.589000000000000E9    -5.824152850473023E-1    5.147620855020957E-1
 5.590000000000000E9    -5.787054784727386E-1    5.179910937537373E-1
 5.591000000000000E9    -5.749405915987978E-1    5.211904726733966E-1
 5.592000000000000E9    -5.711676354073520E-1    5.243277410977235E-1
 5.593000000000000E9    -5.674334413671068E-1    5.274518645837019E-1
 5.594000000000000E9    -5.636801104610933E-1    5.305521184877219E-1
 5.595000000000000E9    -5.599261384157180E-1    5.336617333664720E-1
 5.596000000000000E9    -5.561322643252279E-1    5.367459201710617E-1
 5.597000000000000E9    -5.523206555306014E-1    5.398095527429800E-1
 5.598000000000000E9    -5.484992138820967E-1    5.428918461073117E-1
 5.599000000000000E9    -5.446448386051033E-1    5.459954864348149E-1
 5.600000000000000E9    -5.407386185579184E-1    5.490626007239563E-1
 5.601000000000000E9    -5.367694285461253E-1    5.521339256090368E-1
 5.602000000000000E9    -5.327531033725834E-1    5.551716761020516E-1
 5.603000000000000E9    -5.286852452358873E-1    5.581511164514174E-1
 5.604000000000000E9    -5.246017497248867E-1    5.611284708392709E-1
 5.605000000000000E9    -5.204473391378838E-1    5.640523059606262E-1
 5.606000000000000E9    -5.163020256233659E-1    5.669796928133937E-1
 5.607000000000000E9    -5.120835338082868E-1    5.698785072953217E-1
 5.608000000000000E9    -5.078441227434395E-1    5.727259386649622E-1
 5.609000000000000E9    -5.035360389385051E-1    5.755265510597389E-1
 5.610000000000000E9    -4.991986084731835E-1    5.782915830731326E-1
 5.611000000000000E9    -4.948110132375804E-1    5.809716954585455E-1
 5.612000000000000E9    -4.904497148581015E-1    5.835904639774370E-1
 5.613000000000000E9    -4.860911940325170E-1    5.861631208774420E-1
 5.614000000000000E9    -4.817531599435581E-1    5.887097837579438E-1
 5.615000000000000E9    -4.773986759353182E-1    5.912686301921262E-1
 5.616000000000000E9    -4.730386555805517E-1    5.937934563219480E-1
 5.617000000000000E9    -4.686236988922887E-1    5.962748217187771E-1
 5.618000000000000E9    -4.641530316989512E-1    5.987281576512846E-1
 5.619000000000000E9    -4.597123735611641E-1    6.010988599315313E-1
 5.620000000000000E9    -4.552395580728750E-1    6.034538364665208E-1
 5.621000000000000E9    -4.508019520705859E-1    6.057519883722648E-1
 5.622000000000000E9    -4.463762404164258E-1    6.080619871213071E-1
 5.623000000000000E9    -4.419335464976318E-1    6.103596990008325E-1
 5.624000000000000E9    -4.374793068250500E-1    6.126793368912258E-1
 5.625000000000000E9    -4.329845131801780E-1    6.149872232940721E-1
 5.626000000000000E9    -4.284606933302390E-1    6.172888539638562E-1
 5.627000000000000E9    -4.239043870135074E-1    6.195649705837885E-1
 5.628000000000000E9    -4.192857380695382E-1    6.218005807181441E-1
 5.629000000000000E9    -4.146399395739455E-1    6.239909163907303E-1
 5.630000000000000E9    -4.099748626716435E-1    6.261449639753777E-1
 5.631000000000000E9    -4.053185183714246E-1    6.282805678289222E-1
 5.632000000000000E9    -4.006203199269888E-1    6.303695032557197E-1
 5.633000000000000E9    -3.958867566781655E-1    6.325112012534565E-1
 5.634000000000000E9    -3.911403681017163E-1    6.346033796831086E-1
 5.635000000000000E9    -3.863240632626215E-1    6.366521698488674E-1
 5.636000000000000E9    -3.814801174413247E-1    6.386594839959610E-1
 5.637000000000000E9    -3.765703082016739E-1    6.406126222508614E-1
 5.638000000000000E9    -3.716268033396742E-1    6.425210196615222E-1
 5.639000000000000E9    -3.666552665248262E-1    6.443788042428841E-1
 5.640000000000000E9    -3.616388768354237E-1    6.461571386036865E-1
 5.641000000000000E9    -3.566606775247657E-1    6.478347533133041E-1
 5.642000000000000E9    -3.516292915961202E-1    6.494371859192584E-1
 5.643000000000000E9    -3.466622066780813E-1    6.509607045740468E-1
 5.644000000000000E9    -3.417181778654513E-1    6.524522674748621E-1
 5.645000000000000E9    -3.366720863737775E-1    6.538978690654800E-1
 5.646000000000000E9    -3.317938711228040E-1    6.552741502785361E-1
 5.647000000000000E9    -3.268499684329444E-1    6.566964275025331E-1
 5.648000000000000E9    -3.219324525294873E-1    6.581096466138231E-1
 5.649000000000000E9    -3.170446962910404E-1    6.594582253175217E-1
 5.650000000000000E9    -3.120872332415044E-1    6.608469822935480E-1
 5.651000000000000E9    -3.071727655375130E-1    6.621867468064360E-1
 5.652000000000000E9    -3.022012642997522E-1    6.635408156688806E-1
 5.653000000000000E9    -2.971824314029194E-1    6.648735925418746E-1
 5.654000000000000E9    -2.921218389251471E-1    6.661564602419932E-1
 5.655000000000000E9    -2.870061661942513E-1    6.674075368834379E-1
 5.656000000000000E9    -2.818581512501721E-1    6.685865622649393E-1
 5.657000000000000E9    -2.766767131042642E-1    6.697233721671072E-1
 5.658000000000000E9    -2.714706412060531E-1    6.708007679248873E-1
 5.659000000000000E9    -2.662470178553972E-1    6.718260148216131E-1
 5.660000000000000E9    -2.610035381995413E-1    6.728061049292969E-1
 5.661000000000000E9    -2.557390987823701E-1    6.737233412129762E-1
 5.662000000000000E9    -2.503954103014491E-1    6.745981056223922E-1
 5.663000000000000E9    -2.450353461013479E-1    6.753730811026815E-1
 5.664000000000000E9    -2.397071699643382E-1    6.760427962462573E-1
 5.665000000000000E9    -2.343469036275725E-1    6.766889253526289E-1
 5.666000000000000E9    -2.290175667803783E-1    6.772166478343465E-1
 5.667000000000000E9    -2.237002290965898E-1    6.777173299545998E-1
 5.668000000000000E9    -2.184069439657903E-1    6.781728194860462E-1
 5.669000000000000E9    -2.131386621560681E-1    6.786092003321317E-1
 5.670000000000000E9    -2.078201078603599E-1    6.790284462979933E-1
 5.671000000000000E9    -2.025008871057831E-1    6.793963236618856E-1
 5.672000000000000E9    -1.971602640719504E-1    6.796799497776292E-1
 5.673000000000000E9    -1.918146794029027E-1    6.799106957813438E-1
 5.674000000000000E9    -1.864451744118889E-1    6.800750680603718E-1
 5.675000000000000E9    -1.810894201514804E-1    6.801938919593745E-1
 5.676000000000000E9    -1.757422144510540E-1    6.802427933400835E-1
 5.677000000000000E9    -1.703862388088760E-1    6.802177541903596E-1
 5.678000000000000E9    -1.650669996944116E-1    6.801579090119061E-1
 5.679000000000000E9    -1.597449484674101E-1    6.800824638807994E-1
 5.680000000000000E9    -1.543922669489178E-1    6.799752420786629E-1
 5.681000000000000E9    -1.490164835073773E-1    6.798081021879158E-1
 5.682000000000000E9    -1.436394895953522E-1    6.795946783023989E-1
 5.683000000000000E9    -1.382735655127096E-1    6.793280821845761E-1
 5.684000000000000E9    -1.329099614580984E-1    6.790108991705941E-1
 5.685000000000000E9    -1.275538202646642E-1    6.786619247026632E-1
 5.686000000000000E9    -1.222076962688917E-1    6.783011274365102E-1
 5.687000000000000E9    -1.168470894114141E-1    6.779461408126342E-1
 5.688000000000000E9    -1.114354291244964E-1    6.775592250135265E-1
 5.689000000000000E9    -1.059608405322925E-1    6.771338264584731E-1
 5.690000000000000E9    -1.004328375082488E-1    6.766477260144084E-1
 5.691000000000000E9    -9.483811143194323E-2    6.760763119096678E-1
 5.692000000000000E9    -8.921731782554869E-2    6.754337699784105E-1
 5.693000000000000E9    -8.353532977140041E-2    6.746763785754900E-1
 5.694000000000000E9    -7.785266822963656E-2    6.738303942289281E-1
 5.695000000000000E9    -7.217747737532122E-2    6.728826899510841E-1
 5.696000000000000E9    -6.651017538322117E-2    6.718107223641607E-1
 5.697000000000000E9    -6.084759691867474E-2    6.706587664917734E-1
 5.698000000000000E9    -5.520967839624270E-2    6.694484505076403E-1
 5.699000000000000E9    -4.962750188125912E-2    6.681142266355369E-1
 5.700000000000000E9    -4.405329028443802E-2    6.667235241348640E-1
 5.701000000000000E9    -3.855161118115088E-2    6.652862605462813E-1
 5.702000000000000E9    -3.309241856256814E-2    6.637675277437780E-1
 5.703000000000000E9    -2.770254932380510E-2    6.622347301895177E-1
 5.704000000000000E9    -2.236027286873207E-2    6.606872389728379E-1
 5.705000000000000E9    -1.705039592613007E-2    6.591083695099424E-1
 5.706000000000000E9    -1.176286205830831E-2    6.575597732018437E-1
 5.707000000000000E9    -6.466905115709677E-3    6.559814297052170E-1
 5.708000000000000E9    -1.169904887287594E-3    6.544097322320204E-1
 5.709000000000000E9     4.181361823547543E-3    6.528136182538405E-1
 5.710000000000000E9     9.574106420757169E-3    6.511818869542925E-1
 5.711000000000000E9     1.499975696281114E-2    6.494860157527018E-1
 5.712000000000000E9     2.044374864937763E-2    6.477136633501603E-1
 5.713000000000000E9     2.587049501915149E-2    6.458744962700599E-1
 5.714000000000000E9     3.131087869224247E-2    6.439730695180013E-1
 5.715000000000000E9     3.675536725345702E-2    6.420290760641013E-1
 5.716000000000000E9     4.227102788301192E-2    6.400319324141664E-1
 5.717000000000000E9     4.779754962818392E-2    6.379729979575727E-1
 5.718000000000000E9     5.336123235502106E-2    6.358349746727531E-1
 5.719000000000000E9     5.895721631803324E-2    6.336036554579826E-1
 5.720000000000000E9     6.454852520888590E-2    6.312261465570908E-1
 5.721000000000000E9     7.016560525635365E-2    6.287314596554523E-1
 5.722000000000000E9     7.572806543450071E-2    6.261156830865244E-1
 5.723000000000000E9     8.125930461615778E-2    6.233931875853966E-1
 5.724000000000000E9     8.676130407642264E-2    6.205790519201917E-1
 5.725000000000000E9     9.221051036899634E-2    6.176745134484787E-1
 5.726000000000000E9     9.767455270493705E-2    6.146434482353459E-1
 5.727000000000000E9     1.030501866826416E-1    6.114797784356818E-1
 5.728000000000000E9     1.083503964221511E-1    6.081936946429706E-1
 5.729000000000000E9     1.135785181410536E-1    6.048388927993793E-1
 5.730000000000000E9     1.186442529263401E-1    6.013827027450450E-1
 5.731000000000000E9     1.236099870433280E-1    5.979034048076355E-1
 5.732000000000000E9     1.284278460215297E-1    5.944239308695493E-1
 5.733000000000000E9     1.331900877193505E-1    5.909622863540611E-1
 5.734000000000000E9     1.379061572410969E-1    5.875368820129249E-1
 5.735000000000000E9     1.426235996918364E-1    5.841133452641788E-1
 5.736000000000000E9     1.473561605625265E-1    5.806341129820090E-1
 5.737000000000000E9     1.520619455882577E-1    5.771215666176577E-1
 5.738000000000000E9     1.567491410874803E-1    5.735340911212224E-1
 5.739000000000000E9     1.614058215806762E-1    5.699136696285154E-1
 5.740000000000000E9     1.660233326631937E-1    5.662423331062378E-1
 5.741000000000000E9     1.706372629986806E-1    5.625270494199516E-1
 5.742000000000000E9     1.752051977372939E-1    5.587603273082407E-1
 5.743000000000000E9     1.797763855247905E-1    5.549434162862344E-1
 5.744000000000000E9     1.842928876867625E-1    5.510400260694353E-1
 5.745000000000000E9     1.887759170628890E-1    5.471301982591407E-1
 5.746000000000000E9     1.932540188459487E-1    5.431771957513738E-1
 5.747000000000000E9     1.977190513255630E-1    5.391410938831758E-1
 5.748000000000000E9     2.021812112757534E-1    5.350352400535804E-1
 5.749000000000000E9     2.066121137710530E-1    5.308085841984747E-1
 5.750000000000000E9     2.110114344508325E-1    5.264645347025990E-1
 5.751000000000000E9     2.153348630921206E-1    5.220427378272803E-1
 5.752000000000000E9     2.195892964323140E-1    5.175394973065710E-1
 5.753000000000000E9     2.237797967654065E-1    5.129536750909314E-1
 5.754000000000000E9     2.279438465900307E-1    5.083261412636286E-1
 5.755000000000000E9     2.320575815493829E-1    5.035730202045808E-1
 5.756000000000000E9     2.361335361571862E-1    4.987284512707405E-1
 5.757000000000000E9     2.400990926541092E-1    4.937741329163271E-1
 5.758000000000000E9     2.439419082803002E-1    4.887511726054583E-1
 5.759000000000000E9     2.476819861165012E-1    4.836702703139589E-1
 5.760000000000000E9     2.512783916885901E-1    4.785435261401640E-1
 5.761000000000000E9     2.548341267013840E-1    4.733719697881147E-1
 5.762000000000000E9     2.582367871025961E-1    4.681477262123130E-1
 5.763000000000000E9     2.615675784739581E-1    4.628984945310398E-1
 5.764000000000000E9     2.648290165119164E-1    4.576220812173779E-1
 5.765000000000000E9     2.679896014503359E-1    4.523154476859688E-1
 5.766000000000000E9     2.710853161062067E-1    4.469512628082843E-1
 5.767000000000000E9     2.740554759120054E-1    4.415604695641298E-1
 5.768000000000000E9     2.769463123313491E-1    4.361504054079174E-1
 5.769000000000000E9     2.797632757601566E-1    4.307330042703760E-1
 5.770000000000000E9     2.825161206763921E-1    4.253080569637765E-1
 5.771000000000000E9     2.852671294893372E-1    4.198670947755566E-1
 5.772000000000000E9     2.879718046354280E-1    4.143540309632845E-1
 5.773000000000000E9     2.906673413053478E-1    4.087927600607233E-1
 5.774000000000000E9     2.932782069286238E-1    4.031335268009318E-1
 5.775000000000000E9     2.957856791264352E-1    3.973646108416867E-1
 5.776000000000000E9     2.982453572441305E-1    3.915321550496484E-1
 5.777000000000000E9     3.005749102627348E-1    3.856148715683461E-1
 5.778000000000000E9     3.028003249029345E-1    3.796538111981380E-1
 5.779000000000000E9     3.049527056721378E-1    3.736482375322784E-1
 5.780000000000000E9     3.069998816081038E-1    3.675745424372904E-1
 5.781000000000000E9     3.089799010489179E-1    3.614281262306097E-1
 5.782000000000000E9     3.108157485942858E-1    3.551904023267874E-1
 5.783000000000000E9     3.125178519755208E-1    3.488906616483471E-1
 5.784000000000000E9     3.140606161558371E-1    3.425729461920747E-1
 5.785000000000000E9     3.154493702324425E-1    3.362480117590459E-1
 5.786000000000000E9     3.167913903890711E-1    3.299352234109403E-1
 5.787000000000000E9     3.179993589757307E-1    3.235837812645280E-1
 5.788000000000000E9     3.191054167559457E-1    3.171770937618028E-1
 5.789000000000000E9     3.200545387876256E-1    3.107196720247898E-1
 5.790000000000000E9     3.208430293611748E-1    3.042822595110714E-1
 5.791000000000000E9     3.215189557443475E-1    2.978725089746495E-1
 5.792000000000000E9     3.220679946100823E-1    2.915017577696795E-1
 5.793000000000000E9     3.225662621149290E-1    2.851493130716393E-1
 5.794000000000000E9     3.229984143286122E-1    2.787958580573664E-1
 5.795000000000000E9     3.233292789559417E-1    2.723958949002456E-1
 5.796000000000000E9     3.235936469102539E-1    2.659461727358684E-1
 5.797000000000000E9     3.237079854350732E-1    2.594627404639717E-1
 5.798000000000000E9     3.236860710584783E-1    2.529459502757470E-1
 5.799000000000000E9     3.235412739010229E-1    2.464672233559970E-1
 5.800000000000000E9     3.232823026827176E-1    2.400109342224598E-1
 5.801000000000000E9     3.229544844236060E-1    2.335404990142170E-1
 5.802000000000000E9     3.225436122062371E-1    2.270235553862758E-1
 5.803000000000000E9     3.220260366713217E-1    2.204448219351501E-1
 5.804000000000000E9     3.213630365119683E-1    2.138042433275011E-1
 5.805000000000000E9     3.205051279804261E-1    2.071422014532287E-1
 5.806000000000000E9     3.194862075255937E-1    2.004675364660993E-1
 5.807000000000000E9     3.182260631509982E-1    1.938034685856868E-1
 5.808000000000000E9     3.167653574419674E-1    1.872270883609388E-1
 5.809000000000000E9     3.151708017733196E-1    1.807414989848048E-1
 5.810000000000000E9     3.134201550132916E-1    1.743771953699128E-1
 5.811000000000000E9     3.116444180034143E-1    1.681241310573396E-1
 5.812000000000000E9     3.097543115414920E-1    1.619612362545801E-1
 5.813000000000000E9     3.078182893533640E-1    1.558473251850943E-1
 5.814000000000000E9     3.058156018807961E-1    1.497622395639811E-1
 5.815000000000000E9     3.037151243294016E-1    1.436649380608154E-1
 5.816000000000000E9     3.015822376046204E-1    1.376200953055468E-1
 5.817000000000000E9     2.993155477020073E-1    1.315613165016604E-1
 5.818000000000000E9     2.969187228049689E-1    1.255390631398759E-1
 5.819000000000000E9     2.943829540803241E-1    1.195608070689734E-1
 5.820000000000000E9     2.917491274214501E-1    1.136524622230269E-1
 5.821000000000000E9     2.890505868209979E-1    1.078030075729772E-1
 5.822000000000000E9     2.862804632158223E-1    1.019437563967688E-1
 5.823000000000000E9     2.834137659726820E-1    9.606556825490983E-2
 5.824000000000000E9     2.803734078683706E-1    9.018616554997169E-2
 5.825000000000000E9     2.771652980255799E-1    8.431461243844342E-2
 5.826000000000000E9     2.737816447131871E-1    7.849489687219689E-2
 5.827000000000000E9     2.701920790626555E-1    7.274930990386065E-2
 5.828000000000000E9     2.664298279525077E-1    6.709693516654841E-2
 5.829000000000000E9     2.624941335506474E-1    6.159168698671787E-2
 5.830000000000000E9     2.584501579356606E-1    5.623674437236621E-2
 5.831000000000000E9     2.543027993914177E-1    5.101433564312238E-2
 5.832000000000000E9     2.500803388526319E-1    4.589094156459615E-2
 5.833000000000000E9     2.457594665574914E-1    4.084770612021998E-2
 5.834000000000000E9     2.413137446639503E-1    3.588842523591251E-2
 5.835000000000000E9     2.367423085915948E-1    3.103925735937974E-2
 5.836000000000000E9     2.320750726721202E-1    2.632178542894096E-2
 5.837000000000000E9     2.272979953510801E-1    2.175504369385853E-2
 5.838000000000000E9     2.224020177661493E-1    1.731268459663379E-2
 5.839000000000000E9     2.174358549191668E-1    1.300898761236548E-2
 5.840000000000000E9     2.123511791024390E-1    8.845056521009470E-3
 5.841000000000000E9     2.072037773333898E-1    4.862407356186897E-3
 5.842000000000000E9     2.019948728729113E-1    1.030889035829096E-3
 5.843000000000000E9     1.967302524231166E-1   -2.630742820863125E-3
 5.844000000000000E9     1.914353267333868E-1   -6.120916332544342E-3
 5.845000000000000E9     1.861389697681237E-1   -9.459535345959887E-3
 5.846000000000000E9     1.808699759180839E-1   -1.266065093841474E-2
 5.847000000000000E9     1.756203734259054E-1   -1.579047216457522E-2
 5.848000000000000E9     1.703393913783594E-1   -1.888605720266327E-2
 5.849000000000000E9     1.649954573094477E-1   -2.194867483899388E-2
 5.850000000000000E9     1.595195406795077E-1   -2.493193230146156E-2
 5.851000000000000E9     1.539203692466038E-1   -2.778357051506557E-2
 5.852000000000000E9     1.482009685970577E-1   -3.046936810163319E-2
 5.853000000000000E9     1.424202058599096E-1   -3.296367204641316E-2
 5.854000000000000E9     1.366186169550962E-1   -3.528168089781210E-2
 5.855000000000000E9     1.308071841294237E-1   -3.744427714724253E-2
 5.856000000000000E9     1.249943769594922E-1   -3.946958066895073E-2
 5.857000000000000E9     1.191571871365246E-1   -4.140460959340318E-2
 5.858000000000000E9     1.132793001108876E-1   -4.322895945582660E-2
 5.859000000000000E9     1.073631064529522E-1   -4.494948314065771E-2
 5.860000000000000E9     1.013659869954821E-1   -4.657846585899710E-2
 5.861000000000000E9     9.531293710304642E-2   -4.810855894679340E-2
 5.862000000000000E9     8.913250988649023E-2   -4.950381256960128E-2
 5.863000000000000E9     8.281317940311510E-2   -5.072307766787383E-2
 5.864000000000000E9     7.637204537551892E-2   -5.170257091947709E-2
 5.865000000000000E9     6.985679160137866E-2   -5.241216454627032E-2
 5.866000000000000E9     6.333249341254414E-2   -5.282071474224923E-2
 5.867000000000000E9     5.685647049876682E-2   -5.298004764322865E-2
 5.868000000000000E9     5.046528814022800E-2   -5.290736189824657E-2
 5.869000000000000E9     4.416266892579550E-2   -5.264408736105318E-2
 5.870000000000000E9     3.793312045187145E-2   -5.224215093286628E-2
 5.871000000000000E9     3.174776639024939E-2   -5.167127490315214E-2
 5.872000000000000E9     2.557229179866577E-2   -5.097103159467523E-2
 5.873000000000000E9     1.946127190059841E-2   -5.010520587681211E-2
 5.874000000000000E9     1.339443870704787E-2   -4.906635134555425E-2
 5.875000000000000E9     7.410403081369911E-3   -4.787438053764682E-2
 5.876000000000000E9     1.524193010051641E-3   -4.655503911771442E-2
 5.877000000000000E9    -4.293364313301086E-3   -4.516728897009070E-2
 5.878000000000000E9    -1.012621847632873E-2   -4.371855935098528E-2
 5.879000000000000E9    -1.601821664808870E-2   -4.215932363339813E-2
 5.880000000000000E9    -2.197373438733733E-2   -4.044106938180582E-2
 5.881000000000000E9    -2.796203890600083E-2   -3.848800667157741E-2
 5.882000000000000E9    -3.392263573596293E-2   -3.630646007468025E-2
 5.883000000000000E9    -3.985317739162419E-2   -3.387346743132758E-2
 5.884000000000000E9    -4.573941458155114E-2   -3.118443719433798E-2
 5.885000000000000E9    -5.153815544204519E-2   -2.826332939627802E-2
 5.886000000000000E9    -5.722461381433427E-2   -2.507574030345347E-2
 5.887000000000000E9    -6.274652640180700E-2   -2.164945272156639E-2
 5.888000000000000E9    -6.806676930100679E-2   -1.799203068312268E-2
 5.889000000000000E9    -7.313755155540727E-2   -1.413202832149824E-2
 5.890000000000000E9    -7.798187522491287E-2   -1.018749203718270E-2
 5.891000000000000E9    -8.262175564390666E-2   -6.181389884162199E-3
 5.892000000000000E9    -8.713218685779442E-2   -2.140475674284008E-3
 5.893000000000000E9    -9.151444210118859E-2    1.945213833663394E-3
 5.894000000000000E9    -9.579708455708114E-2    6.113328934634179E-3
 5.895000000000000E9    -9.993922819928772E-2    1.040004057532422E-2
 5.896000000000000E9    -1.039841890455572E-1    1.479127311289052E-2
 5.897000000000000E9    -1.078924923411930E-1    1.925538856273206E-2
 5.898000000000000E9    -1.117008712107018E-1    2.379342105776936E-2
 5.899000000000000E9    -1.153910856296902E-1    2.844682362259478E-2
 5.900000000000000E9    -1.189412632030495E-1    3.320106309571335E-2
 5.901000000000000E9    -1.223359662300820E-1    3.811404661604421E-2
 5.902000000000000E9    -1.255027749295193E-1    4.314227557940661E-2
 5.903000000000000E9    -1.284004919014414E-1    4.820158286288217E-2
 5.904000000000000E9    -1.310765401054668E-1    5.324042881821753E-2
 5.905000000000000E9    -1.335902375134601E-1    5.814310082122588E-2
 5.906000000000000E9    -1.360099152898291E-1    6.293816682314644E-2
 5.907000000000000E9    -1.384179685845613E-1    6.763876772424100E-2
 5.908000000000000E9    -1.408614262684391E-1    7.235079232931312E-2
 5.909000000000000E9    -1.433759718381214E-1    7.710866672162110E-2
 5.910000000000000E9    -1.459054128964273E-1    8.197969260756545E-2
 5.911000000000000E9    -1.484609288967723E-1    8.699331324086597E-2
 5.912000000000000E9    -1.509479389157801E-1    9.218874335071855E-2
 5.913000000000000E9    -1.533590104299289E-1    9.759367612917286E-2
 5.914000000000000E9    -1.556065354750856E-1    1.032150662234340E-1
 5.915000000000000E9    -1.576377597202790E-1    1.090008319729851E-1
 5.916000000000000E9    -1.594516428710576E-1    1.148833074635042E-1
 5.917000000000000E9    -1.610649975327854E-1    1.207974173687543E-1
 5.918000000000000E9    -1.625223466018369E-1    1.267678683388535E-1
 5.919000000000000E9    -1.638373418413165E-1    1.328078936083440E-1
 5.920000000000000E9    -1.649580607638370E-1    1.389240281472624E-1
 5.921000000000000E9    -1.659299298467702E-1    1.451513486298592E-1
 5.922000000000000E9    -1.667067172548331E-1    1.514632273222867E-1
 5.923000000000000E9    -1.672707118871335E-1    1.578390257805695E-1
 5.924000000000000E9    -1.676521555492553E-1    1.642852120290439E-1
 5.925000000000000E9    -1.677782157069913E-1    1.707970673915878E-1
 5.926000000000000E9    -1.676614439064497E-1    1.773723327541646E-1
 5.927000000000000E9    -1.672642091494397E-1    1.839994947465661E-1
 5.928000000000000E9    -1.665574458563963E-1    1.906239340217658E-1
 5.929000000000000E9    -1.655407368715415E-1    1.971962617894305E-1
 5.930000000000000E9    -1.641854973337377E-1    2.036607682656871E-1
 5.931000000000000E9    -1.625494133830769E-1    2.099561173836442E-1
 5.932000000000000E9    -1.606736141873802E-1    2.160102383208802E-1
 5.933000000000000E9    -1.586510141274087E-1    2.218308240172204E-1
 5.934000000000000E9    -1.565805030084503E-1    2.274153031814317E-1
 5.935000000000000E9    -1.544933284937404E-1    2.328082467836893E-1
 5.936000000000000E9    -1.524342154284857E-1    2.380747456347879E-1
 5.937000000000000E9    -1.504479578186474E-1    2.432476084102037E-1
 5.938000000000000E9    -1.485232669039083E-1    2.484531664974638E-1
 5.939000000000000E9    -1.466119261079807E-1    2.537655840299521E-1
 5.940000000000000E9    -1.446216664465197E-1    2.592075103690237E-1
 5.941000000000000E9    -1.424783058309536E-1    2.647673632250516E-1
 5.942000000000000E9    -1.401231914108474E-1    2.703888490789412E-1
 5.943000000000000E9    -1.375728200089366E-1    2.760605974076116E-1
 5.944000000000000E9    -1.348006511682396E-1    2.817492200228458E-1
 5.945000000000000E9    -1.317542528331288E-1    2.874508051247001E-1
 5.946000000000000E9    -1.284577506614984E-1    2.931239623807004E-1
 5.947000000000000E9    -1.248499117712054E-1    2.987089371151555E-1
 5.948000000000000E9    -1.209716665280907E-1    3.041399823538424E-1
 5.949000000000000E9    -1.168707427204790E-1    3.093872759298973E-1
 5.950000000000000E9    -1.125908980351499E-1    3.144614565871862E-1
 5.951000000000000E9    -1.081857103366705E-1    3.193539928902116E-1
 5.952000000000000E9    -1.036367511079531E-1    3.240941820398355E-1
 5.953000000000000E9    -9.894041364300515E-2    3.287025725235338E-1
 5.954000000000000E9    -9.408034173331237E-2    3.331548618349002E-1
 5.955000000000000E9    -8.905808240565503E-2    3.374472992166704E-1
 5.956000000000000E9    -8.390224618221699E-2    3.415431511896267E-1
 5.957000000000000E9    -7.863451977688303E-2    3.454062681355650E-1
 5.958000000000000E9    -7.327532182694521E-2    3.490571212733591E-1
 5.959000000000000E9    -6.790731946734663E-2    3.524692763551144E-1
 5.960000000000000E9    -6.251826829989598E-2    3.556660473770558E-1
 5.961000000000000E9    -5.714609522784539E-2    3.587173359278349E-1
 5.962000000000000E9    -5.184332642710292E-2    3.616692668541439E-1
 5.963000000000000E9    -4.653736620303828E-2    3.645837228040601E-1
 5.964000000000000E9    -4.118152062780719E-2    3.674630388050842E-1
 5.965000000000000E9    -3.575483213564502E-2    3.703008263823096E-1
 5.966000000000000E9    -3.021647967151704E-2    3.730542346623958E-1
 5.967000000000000E9    -2.454774016768506E-2    3.756877609135227E-1
 5.968000000000000E9    -1.878487726870751E-2    3.782123382446593E-1
 5.969000000000000E9    -1.294326177024204E-2    3.806116893234679E-1
 5.970000000000000E9    -7.048534865490740E-3    3.828664137304645E-1
 5.971000000000000E9    -1.076718353331926E-3    3.850093211175156E-1
 5.972000000000000E9     4.918126635468715E-3    3.870142157165464E-1
 5.973000000000000E9     1.101346139453986E-2    3.888975297024619E-1
 5.974000000000000E9     1.719603594050926E-2    3.906345293180035E-1
 5.975000000000000E9     2.343950549689390E-2    3.922171370782853E-1
 5.976000000000000E9     2.969088044983384E-2    3.936486385875223E-1
 5.977000000000000E9     3.593145311351538E-2    3.949269629341400E-1
 5.978000000000000E9     4.220063176030014E-2    3.960780449340936E-1
 5.979000000000000E9     4.845085691823690E-2    3.971148095251032E-1
 5.980000000000000E9     5.474177471897016E-2    3.980817039022105E-1
 5.981000000000000E9     6.108095853297430E-2    3.990049390768725E-1
 5.982000000000000E9     6.748707136112790E-2    3.998379438592671E-1
 5.983000000000000E9     7.400272476597017E-2    4.005649737589793E-1
 5.984000000000000E9     8.060732412366645E-2    4.011312038765711E-1
 5.985000000000000E9     8.730364216885649E-2    4.015083235167782E-1
 5.986000000000000E9     9.404892266496258E-2    4.017018755720735E-1
 5.987000000000000E9     1.007795712460755E-1    4.017248946378142E-1
 5.988000000000000E9     1.075046875481335E-1    4.016047945096048E-1
 5.989000000000000E9     1.142254571556450E-1    4.013831969956416E-1
 5.990000000000000E9     1.209488218574113E-1    4.010467924187558E-1
 5.991000000000000E9     1.277293475904558E-1    4.005802206132369E-1
 5.992000000000000E9     1.345824973799486E-1    3.999872107532656E-1
 5.993000000000000E9     1.414881244980857E-1    3.992375688480868E-1
 5.994000000000000E9     1.484260232320121E-1    3.983308728284771E-1
 5.995000000000000E9     1.553495705382883E-1    3.972595737847224E-1
 5.996000000000000E9     1.623485851775448E-1    3.960441866260740E-1
 5.997000000000000E9     1.693415692335480E-1    3.946951454093250E-1
 5.998000000000000E9     1.763961719176016E-1    3.931889312160536E-1
 5.999000000000000E9     1.835020091692944E-1    3.914721378213522E-1
 6.000000000000000E9     1.905934618475961E-1    3.895647242645928E-1
 6.001000000000000E9     1.976381854382294E-1    3.874567898554027E-1
 6.002000000000000E9     2.047515331114177E-1    3.850736378211611E-1
 6.003000000000000E9     2.118117589204896E-1    3.824857105622334E-1
 6.004000000000000E9     2.187866349140128E-1    3.796844841553746E-1
 6.005000000000000E9     2.256247317614077E-1    3.767248841785462E-1
 6.006000000000000E9     2.324468801796432E-1    3.736082576248871E-1
 6.007000000000000E9     2.391329312970756E-1    3.703794306927161E-1
 6.008000000000000E9     2.457820305362687E-1    3.669866521500353E-1
 6.009000000000000E9     2.523647998157423E-1    3.634605156838431E-1
 6.010000000000000E9     2.588734910934083E-1    3.597807435756968E-1
 6.011000000000000E9     2.653425431273082E-1    3.559522093899750E-1
 6.012000000000000E9     2.717484999357744E-1    3.520307063645316E-1
 6.013000000000000E9     2.781167763393261E-1    3.480065505416463E-1
 6.014000000000000E9     2.844526357110602E-1    3.437902565450182E-1
 6.015000000000000E9     2.907246906075362E-1    3.394060665054647E-1
 6.016000000000000E9     2.969333590701708E-1    3.347671230068880E-1
 6.017000000000000E9     3.030242831632333E-1    3.299573533162640E-1
 6.018000000000000E9     3.089218468073227E-1    3.249814068158007E-1
 6.019000000000000E9     3.146518972700497E-1    3.198891895149757E-1
 6.020000000000000E9     3.202151515104559E-1    3.147043995347389E-1
 6.021000000000000E9     3.256630171441583E-1    3.094832464987873E-1
 6.022000000000000E9     3.310035793433084E-1    3.041746771906872E-1
 6.023000000000000E9     3.362287131596587E-1    2.988112855053690E-1
 6.024000000000000E9     3.413752759043241E-1    2.934140450056266E-1
 6.025000000000000E9     3.464585680778308E-1    2.879387863505536E-1
 6.026000000000000E9     3.515181905583537E-1    2.824163967173299E-1
 6.027000000000000E9     3.565854210583802E-1    2.767511015538127E-1
 6.028000000000000E9     3.616119641301773E-1    2.709010597533774E-1
 6.029000000000000E9     3.665400857983195E-1    2.648572368378401E-1
 6.030000000000000E9     3.713019552691205E-1    2.586292989617714E-1
 6.031000000000000E9     3.758827683307885E-1    2.523179091995180E-1
 6.032000000000000E9     3.802890701482770E-1    2.458967199353750E-1
 6.033000000000000E9     3.845629195364150E-1    2.394324179577996E-1
 6.034000000000000E9     3.887031840620326E-1    2.329260750130287E-1
 6.035000000000000E9     3.927796299505448E-1    2.263819592576928E-1
 6.036000000000000E9     3.967961627660334E-1    2.197901203546154E-1
 6.037000000000000E9     4.007724685236747E-1    2.130905261412250E-1
 6.038000000000000E9     4.046961339478233E-1    2.062045015946491E-1
 6.039000000000000E9     4.085015933407690E-1    1.991467951545096E-1
 6.040000000000000E9     4.121498350078056E-1    1.918971050617084E-1
 6.041000000000000E9     4.156070978335713E-1    1.845204491726442E-1
 6.042000000000000E9     4.188270133000158E-1    1.770447058357989E-1
 6.043000000000000E9     4.218388243776787E-1    1.695210455507729E-1
 6.044000000000000E9     4.246641829205475E-1    1.619575789068148E-1
 6.045000000000000E9     4.273205189251890E-1    1.543535146484900E-1
 6.046000000000000E9     4.298424131728807E-1    1.467429647348951E-1
 6.047000000000000E9     4.322664415718340E-1    1.390880392442620E-1
 6.048000000000000E9     4.345550049631687E-1    1.314075992567686E-1
 6.049000000000000E9     4.367280663951436E-1    1.236412317213095E-1
 6.050000000000000E9     4.387188185229342E-1    1.158304897247588E-1
 6.051000000000000E9     4.405853531395138E-1    1.080153639577874E-1
 6.052000000000000E9     4.423342189215125E-1    1.001756547360351E-1
 6.053000000000000E9     4.440071432747621E-1    9.230972960374469E-2
 6.054000000000000E9     4.456099541589154E-1    8.439701773984862E-2
 6.055000000000000E9     4.471498016807313E-1    7.636606409196316E-2
 6.056000000000000E9     4.485641685636209E-1    6.821326675320258E-2
 6.057000000000000E9     4.498152240530067E-1    5.991104107101761E-2
 6.058000000000000E9     4.509216074087314E-1    5.150330228418851E-2
 6.059000000000000E9     4.518486588868910E-1    4.301735426197673E-2
 6.060000000000000E9     4.525752827317560E-1    3.443027049581363E-2
 6.061000000000000E9     4.531244128919322E-1    2.575047521699214E-2
 6.062000000000000E9     4.534582625897852E-1    1.692564251285631E-2
 6.063000000000000E9     4.535421730762012E-1    8.002066916419288E-3
 6.064000000000000E9     4.533147952426153E-1   -9.750394490078008E-4
 6.065000000000000E9     4.527700138751329E-1   -9.967315697154382E-3
 6.066000000000000E9     4.519160162352084E-1   -1.889224944225325E-2
 6.067000000000000E9     4.507892225775660E-1   -2.770582582874406E-2
 6.068000000000000E9     4.494142783341450E-1   -3.637816341697178E-2
 6.069000000000000E9     4.478587468736100E-1   -4.492920947920156E-2
 6.070000000000000E9     4.461830617497207E-1   -5.335506670835775E-2
 6.071000000000000E9     4.444165500442510E-1   -6.169185425825389E-2
 6.072000000000000E9     4.425516253279517E-1   -6.996444247657398E-2
 6.073000000000000E9     4.405911298505729E-1   -7.817434370425601E-2
 6.074000000000000E9     4.385274842115338E-1   -8.638009503399316E-2
 6.075000000000000E9     4.363245449662096E-1   -9.458309686693411E-2
 6.076000000000000E9     4.336832293749557E-1   -1.028055475557033E-1
 6.077000000000000E9     4.312511719223452E-1   -1.110469383909912E-1
 6.078000000000000E9     4.286354880329519E-1   -1.192666139469108E-1
 6.079000000000000E9     4.258339234150174E-1   -1.274891819636604E-1
 6.080000000000000E9     4.228657745561568E-1   -1.356929252016898E-1
 6.081000000000000E9     4.196917296577399E-1   -1.439290770596070E-1
 6.082000000000000E9     4.162556076070705E-1   -1.521458003752365E-1
 6.083000000000000E9     4.125407291010083E-1   -1.602780704070729E-1
 6.084000000000000E9     4.085588109939431E-1   -1.682898027586714E-1
 6.085000000000000E9     4.043429077032277E-1   -1.760867413289753E-1
 6.086000000000000E9     3.999870617382121E-1   -1.836698623969348E-1
 6.087000000000000E9     3.955029318657112E-1   -1.910904208283183E-1
 6.088000000000000E9     3.909040033653947E-1   -1.983221034362772E-1
 6.089000000000000E9     3.862191988423048E-1   -2.054415618145372E-1
 6.090000000000000E9     3.814617803609831E-1   -2.124013568205575E-1
 6.091000000000000E9     3.766223636472387E-1   -2.192039354101316E-1
 6.092000000000000E9     3.717372372650163E-1   -2.258384010404694E-1
 6.093000000000000E9     3.668316441238975E-1   -2.323446786057454E-1
 6.094000000000000E9     3.619473227754682E-1   -2.387549428133282E-1
 6.095000000000000E9     3.570659707138995E-1   -2.451395763080464E-1
 6.096000000000000E9     3.521735377694902E-1   -2.515428977715193E-1
 6.097000000000000E9     3.471919487054542E-1   -2.579698015282065E-1
 6.098000000000000E9     3.421246907762481E-1   -2.643888508407846E-1
 6.099000000000000E9     3.369094095403095E-1   -2.707935467488436E-1
 6.100000000000000E9     3.315612824120154E-1   -2.771792593804009E-1
 6.101000000000000E9     3.260697304358042E-1   -2.835218905229656E-1
 6.102000000000000E9     3.204448677209597E-1   -2.898356070083172E-1
 6.103000000000000E9     3.146794076706619E-1   -2.961167721101425E-1
 6.104000000000000E9     3.087550835956513E-1   -3.023539987347402E-1
 6.105000000000000E9     3.026021624867409E-1   -3.085617277271085E-1
 6.106000000000000E9     2.961963067270868E-1   -3.146275816951117E-1
 6.107000000000000E9     2.895909341173576E-1   -3.205470282683548E-1
 6.108000000000000E9     2.827935957258575E-1   -3.262526403001479E-1
 6.109000000000000E9     2.758960404028967E-1   -3.317314680347547E-1
 6.110000000000000E9     2.689344704009276E-1   -3.370354694643047E-1
 6.111000000000000E9     2.619270542087210E-1   -3.421294232871680E-1
 6.112000000000000E9     2.548778310755111E-1   -3.471349157947422E-1
 6.113000000000000E9     2.477505696080956E-1   -3.520759734393931E-1
 6.114000000000000E9     2.405012036064971E-1   -3.568864090810129E-1
 6.115000000000000E9     2.331283803117206E-1   -3.616034726672833E-1
 6.116000000000000E9     2.256006613268383E-1   -3.660951232064564E-1
 6.117000000000000E9     2.180048467109465E-1   -3.704108281976001E-1
 6.118000000000000E9     2.103543988432603E-1   -3.745462318162371E-1
 6.119000000000000E9     2.026402394988269E-1   -3.784785460390472E-1
 6.120000000000000E9     1.949228840720082E-1   -3.822964475777908E-1
 6.121000000000000E9     1.871728328235951E-1   -3.859096328535192E-1
 6.122000000000000E9     1.794196655308534E-1   -3.894250681203332E-1
 6.123000000000000E9     1.716553150696426E-1   -3.928319444327857E-1
 6.124000000000000E9     1.638454136295557E-1   -3.961597732558043E-1
 6.125000000000000E9     1.559578409350656E-1   -3.994383198719947E-1
 6.126000000000000E9     1.479541994964185E-1   -4.025776225591673E-1
 6.127000000000000E9     1.398466186932665E-1   -4.056111469167843E-1
 6.128000000000000E9     1.316567647308446E-1   -4.084791324624168E-1
 6.129000000000000E9     1.233842770174153E-1   -4.111647998474445E-1
 6.130000000000000E9     1.150317815608990E-1   -4.137217452081812E-1
 6.131000000000000E9     1.066160479077632E-1   -4.160544124115368E-1
 6.132000000000000E9     9.815274773239545E-2   -4.182226880840192E-1
 6.133000000000000E9     8.966749235885906E-2   -4.202137665656867E-1
 6.134000000000000E9     8.114957894174669E-2   -4.220586064469102E-1
 6.135000000000000E9     7.257189580894792E-2   -4.237716644977767E-1
 6.136000000000000E9     6.392553087102346E-2   -4.252829041390732E-1
 6.137000000000000E9     5.523403899699839E-2   -4.266353043323420E-1
 6.138000000000000E9     4.648315827228525E-2   -4.277774135751694E-1
 6.139000000000000E9     3.767530973513042E-2   -4.287235393731356E-1
 6.140000000000000E9     2.882250809356129E-2   -4.294602401438533E-1
 6.141000000000000E9     1.995154652288575E-2   -4.299518972831562E-1
 6.142000000000000E9     1.107164670643214E-2   -4.301802074524388E-1
 6.143000000000000E9     2.245211690999714E-3   -4.301378638741605E-1
 6.144000000000000E9    -6.492516885488653E-3   -4.298260933921308E-1
 6.145000000000000E9    -1.509912318945860E-2   -4.293362430707199E-1
 6.146000000000000E9    -2.355027725077402E-2   -4.286487075871676E-1
 6.147000000000000E9    -3.186494148590488E-2   -4.278300572818997E-1
 6.148000000000000E9    -4.007419642296076E-2   -4.269178843135126E-1
 6.149000000000000E9    -4.814804124532532E-2   -4.259293098361649E-1
 6.150000000000000E9    -5.613539486680388E-2   -4.248977495366772E-1
 6.151000000000000E9    -6.404840771310789E-2   -4.237901674749551E-1
 6.152000000000000E9    -7.190983228067101E-2   -4.226370365643153E-1
 6.153000000000000E9    -7.968176875706010E-2   -4.214291197373206E-1
 6.154000000000000E9    -8.741994535386642E-2   -4.202168240927643E-1
 6.155000000000000E9    -9.517302539387874E-2   -4.190192690691496E-1
 6.156000000000000E9    -1.029851483870927E-1   -4.178271862397835E-1
 6.157000000000000E9    -1.109183886287127E-1   -4.165501173061288E-1
 6.158000000000000E9    -1.189494596765609E-1   -4.151531572724838E-1
 6.159000000000000E9    -1.270638975300969E-1   -4.135624733492114E-1
 6.160000000000000E9    -1.352080955583402E-1   -4.117658451570639E-1
 6.161000000000000E9    -1.433423889401554E-1   -4.097629533256099E-1
 6.162000000000000E9    -1.514285223199598E-1   -4.075843891558256E-1
 6.163000000000000E9    -1.594716530485795E-1   -4.052110941250998E-1
 6.164000000000000E9    -1.674438461993587E-1   -4.027068174238226E-1
 6.165000000000000E9    -1.753655575131112E-1   -4.000632813179034E-1
 6.166000000000000E9    -1.832508088105839E-1   -3.972753930489870E-1
 6.167000000000000E9    -1.910856769949711E-1   -3.943513519300334E-1
 6.168000000000000E9    -1.988599284151790E-1   -3.912775471754947E-1
 6.169000000000000E9    -2.065709520882385E-1   -3.880488201139176E-1
 6.170000000000000E9    -2.142021223471068E-1   -3.846793299835682E-1
 6.171000000000000E9    -2.217539002089638E-1   -3.811512933786435E-1
 6.172000000000000E9    -2.292418741935325E-1   -3.774913136055046E-1
 6.173000000000000E9    -2.366113534057210E-1   -3.737037022846114E-1
 6.174000000000000E9    -2.439293620826493E-1   -3.698170678954881E-1
 6.175000000000000E9    -2.511623721314127E-1   -3.658183763809019E-1
 6.176000000000000E9    -2.583086557826759E-1   -3.616814199504528E-1
 6.177000000000000E9    -2.654408297176999E-1   -3.574223362329118E-1
 6.178000000000000E9    -2.724404728909868E-1   -3.529824997516775E-1
 6.179000000000000E9    -2.793282268372633E-1   -3.483867756710360E-1
 6.180000000000000E9    -2.860254149965445E-1   -3.436598424770807E-1
 6.181000000000000E9    -2.925607257214989E-1   -3.388709131712367E-1
 6.182000000000000E9    -2.989643092958041E-1   -3.340466396665692E-1
 6.183000000000000E9    -3.052953663700323E-1   -3.291960681870857E-1
 6.184000000000000E9    -3.115807049686842E-1   -3.242868276320058E-1
 6.185000000000000E9    -3.178435378553759E-1   -3.192595499028498E-1
 6.186000000000000E9    -3.240256253018618E-1   -3.140991677774274E-1
 6.187000000000000E9    -3.300883319136034E-1   -3.087991977703514E-1
 6.188000000000000E9    -3.360236414756573E-1   -3.033789694003360E-1
 6.189000000000000E9    -3.418131214358193E-1   -2.978505533010917E-1
 6.190000000000000E9    -3.474760258289026E-1   -2.922358854044589E-1
 6.191000000000000E9    -3.529844997713544E-1   -2.864963417181363E-1
 6.192000000000000E9    -3.583336105262304E-1   -2.806989790608471E-1
 6.193000000000000E9    -3.634951511273355E-1   -2.748373714103589E-1
 6.194000000000000E9    -3.684623891399669E-1   -2.689608177778162E-1
 6.195000000000000E9    -3.732733708398946E-1   -2.631110303126113E-1
 6.196000000000000E9    -3.779380168732094E-1   -2.573026193190786E-1
 6.197000000000000E9    -3.825352045494711E-1   -2.515732168044688E-1
 6.198000000000000E9    -3.871029262584247E-1   -2.458991609919298E-1
 6.199000000000000E9    -3.916856614037180E-1   -2.402587814846217E-1
 6.200000000000000E9    -3.962988021543364E-1   -2.345703324922019E-1
 6.201000000000000E9    -4.009237024760970E-1   -2.287871025546896E-1
 6.202000000000000E9    -4.055143999460207E-1   -2.228678051514994E-1
 6.203000000000000E9    -4.100535724170455E-1   -2.168442152034266E-1
 6.204000000000000E9    -4.145277052746505E-1   -2.106690272730119E-1
 6.205000000000000E9    -4.188907630012293E-1   -2.043869656441744E-1
 6.206000000000000E9    -4.231411501114415E-1   -1.979863497421111E-1
 6.207000000000000E9    -4.272497658243721E-1   -1.914602924370407E-1
 6.208000000000000E9    -4.312067455274257E-1   -1.848383938887130E-1
 6.209000000000000E9    -4.350115479027616E-1   -1.781103306338966E-1
 6.210000000000000E9    -4.385886395049183E-1   -1.713295125845439E-1
 6.211000000000000E9    -4.419892413646770E-1   -1.644782737130978E-1
 6.212000000000000E9    -4.451661797857457E-1   -1.576426094796013E-1
 6.213000000000000E9    -4.481529433914978E-1   -1.508388042719279E-1
 6.214000000000000E9    -4.509942923333812E-1   -1.440883177407273E-1
 6.215000000000000E9    -4.537151169536229E-1   -1.374108735712773E-1
 6.216000000000000E9    -4.563663961513886E-1   -1.307526184023630E-1
 6.217000000000000E9    -4.589451096305355E-1   -1.241317770182032E-1
 6.218000000000000E9    -4.614301459675387E-1   -1.175095733334005E-1
 6.219000000000000E9    -4.637988628058666E-1   -1.108765637434301E-1
 6.220000000000000E9    -4.660820407111105E-1   -1.043041567766184E-1
 6.221000000000000E9    -4.683061104484291E-1   -9.773645229984577E-2
 6.222000000000000E9    -4.705037887181365E-1   -9.125135445356738E-2
 6.223000000000000E9    -4.727175996393023E-1   -8.477359487584092E-2
 6.224000000000000E9    -4.749559609692232E-1   -7.821601160581293E-2
 6.225000000000000E9    -4.771763137302444E-1   -7.160239869632963E-2
 6.226000000000000E9    -4.793424692669712E-1   -6.476936607791423E-2
 6.227000000000000E9    -4.813793734605465E-1   -5.782772252113946E-2
 6.228000000000000E9    -4.832523721563192E-1   -5.080352900845064E-2
 6.229000000000000E9    -4.849608890600056E-1   -4.370236070237388E-2
 6.230000000000000E9    -4.864799609554110E-1   -3.661719335837207E-2
 6.231000000000000E9    -4.878328631601450E-1   -2.942461101734673E-2
 6.232000000000000E9    -4.890436511912606E-1   -2.229112794624916E-2
 6.233000000000000E9    -4.900994899768669E-1   -1.513680990141369E-2
 6.234000000000000E9    -4.910017689801790E-1   -8.000093794193461E-3
 6.235000000000000E9    -4.917340828193237E-1   -9.223176484661281E-4
 6.236000000000000E9    -4.923023349098173E-1    6.120649287248430E-3
 6.237000000000000E9    -4.927966893083697E-1    1.301884402893395E-2
 6.238000000000000E9    -4.932240133450070E-1    1.986036394282938E-2
 6.239000000000000E9    -4.936246708206534E-1    2.666291080705593E-2
 6.240000000000000E9    -4.940345897088281E-1    3.337809950917849E-2
 6.241000000000000E9    -4.944324153818429E-1    4.018458513202618E-2
 6.242000000000000E9    -4.947783675701453E-1    4.703277119120537E-2
 6.243000000000000E9    -4.950476380871854E-1    5.393163031842855E-2
 6.244000000000000E9    -4.952018913532152E-1    6.087622730952283E-2
 6.245000000000000E9    -4.951599486972672E-1    6.788443022276239E-2
 6.246000000000000E9    -4.950154547669085E-1    7.486666795816375E-2
 6.247000000000000E9    -4.947018918610718E-1    8.183461608601911E-2
 6.248000000000000E9    -4.943148375693845E-1    8.872267229388321E-2
 6.249000000000000E9    -4.938371028144184E-1    9.557454227691541E-2
 6.250000000000000E9    -4.932382340388832E-1    1.023782659939341E-1
 6.251000000000000E9    -4.925833658622206E-1    1.091270537965871E-1
 6.252000000000000E9    -4.918789623656894E-1    1.158246095158506E-1
 6.253000000000000E9    -4.911188961449703E-1    1.224846761302921E-1
 6.254000000000000E9    -4.903054179318460E-1    1.291348867595409E-1
 6.255000000000000E9    -4.894282469378303E-1    1.357520641517896E-1
 6.256000000000000E9    -4.885049250941084E-1    1.423781484004848E-1
 6.257000000000000E9    -4.874581731680164E-1    1.490462865541460E-1
 6.258000000000000E9    -4.863748766508715E-1    1.556574199498967E-1
 6.259000000000000E9    -4.851950533274271E-1    1.622692210820840E-1
 6.260000000000000E9    -4.839518606251119E-1    1.688997923639810E-1
 6.261000000000000E9    -4.826586219754653E-1    1.754987761646939E-1
 6.262000000000000E9    -4.812224470723286E-1    1.821634485549471E-1
 6.263000000000000E9    -4.796969754300466E-1    1.887962483546186E-1
 6.264000000000000E9    -4.780200940635371E-1    1.954108141719454E-1
 6.265000000000000E9    -4.761835746328107E-1    2.020371857873257E-1
 6.266000000000000E9    -4.741938709202599E-1    2.085673635269068E-1
 6.267000000000000E9    -4.721199111401315E-1    2.149885197230933E-1
 6.268000000000000E9    -4.699643603580652E-1    2.213024349964532E-1
 6.269000000000000E9    -4.677093368054831E-1    2.275297340692395E-1
 6.270000000000000E9    -4.654868759940621E-1    2.336305103369995E-1
 6.271000000000000E9    -4.632611607100867E-1    2.396554657445689E-1
 6.272000000000000E9    -4.609604857020460E-1    2.456890333069798E-1
 6.273000000000000E9    -4.586869292240097E-1    2.517306803489044E-1
 6.274000000000000E9    -4.563268137180868E-1    2.577831258381441E-1
 6.275000000000000E9    -4.538933532094944E-1    2.638259403517718E-1
 6.276000000000000E9    -4.513134832348394E-1    2.699081622597665E-1
 6.277000000000000E9    -4.486293443384115E-1    2.759054361678374E-1
 6.278000000000000E9    -4.458195143721216E-1    2.818326634378185E-1
 6.279000000000000E9    -4.429819034817898E-1    2.876365782802037E-1
 6.280000000000000E9    -4.401307264833770E-1    2.933751908905077E-1
 6.281000000000000E9    -4.371960383120512E-1    2.990993066205757E-1
 6.282000000000000E9    -4.342313816404873E-1    3.048282979625434E-1
 6.283000000000000E9    -4.311499037376096E-1    3.105901914276355E-1
 6.284000000000000E9    -4.279399883433687E-1    3.163126304669728E-1
 6.285000000000000E9    -4.246199414428148E-1    3.219651286391843E-1
 6.286000000000000E9    -4.211864325304033E-1    3.275364268004805E-1
 6.287000000000000E9    -4.176120534047240E-1    3.330474914086324E-1
 6.288000000000000E9    -4.139945003172945E-1    3.384040846035254E-1
 6.289000000000000E9    -4.103303996146581E-1    3.436484864840343E-1
 6.290000000000000E9    -4.066098085897048E-1    3.487848127342000E-1
 6.291000000000000E9    -4.029013590019276E-1    3.538128072250541E-1
 6.292000000000000E9    -3.991619738262402E-1    3.587834552946891E-1
 6.293000000000000E9    -3.954212550438214E-1    3.636875388068194E-1
 6.294000000000000E9    -3.916430403635177E-1    3.685481776035208E-1
 6.295000000000000E9    -3.878152917797617E-1    3.733786383497452E-1
 6.296000000000000E9    -3.840293392800322E-1    3.781163434752282E-1
 6.297000000000000E9    -3.801773020694062E-1    3.828374723331586E-1
 6.298000000000000E9    -3.763137302420407E-1    3.875335233661774E-1
 6.299000000000000E9    -3.724255352041993E-1    3.922202044822209E-1
 6.300000000000000E9    -3.684996969709123E-1    3.968950133050002E-1
