! NanoVNA-App
! Date: 2026-02-07 22:27:05
! Start: 5.3GHz Stop: 6.3GHz Points: 1001
! S-Parameter data: F S11
# Hz S RI R 50
!     Frequency           S11_Real           S11_Imag
     5300000000    6.957591325e-02   -1.460851580e-01
     5301000000    7.102682441e-02   -1.439522207e-01
     5302000000    7.452034205e-02   -1.372403651e-01
     5303000000    7.376722246e-02   -1.374230385e-01
     5304000000    7.278578728e-02   -1.418251097e-01
     5305000000    6.744858623e-02   -1.433422863e-01
     5306000000    7.520737499e-02   -1.347889453e-01
     5307000000    7.778967917e-02   -1.332212389e-01
     5308000000    7.531150430e-02   -1.350696534e-01
     5309000000    7.462499291e-02   -1.333018243e-01
     5310000000    7.868739963e-02   -1.335658282e-01
     5311000000    7.765031606e-02   -1.310329735e-01
     5312000000    7.993263751e-02   -1.300597042e-01
     5313000000    7.403182238e-02   -1.294989586e-01
     5314000000    7.607295364e-02   -1.278703958e-01
     5315000000    7.621312141e-02   -1.257599592e-01
     5316000000    8.317739516e-02   -1.271764636e-01
     5317000000    7.778177410e-02   -1.257120222e-01
     5318000000    7.464954257e-02   -1.267728508e-01
     5319000000    8.868483454e-02   -1.164254472e-01
     5320000000    8.212443441e-02   -1.228021607e-01
     5321000000    8.591818064e-02   -1.159131676e-01
     5322000000    8.584013581e-02   -1.161521003e-01
     5323000000    8.219354600e-02   -1.165832505e-01
     5324000000    8.136391640e-02   -1.200709566e-01
     5325000000    9.441056848e-02   -1.073062569e-01
     5326000000    8.542116731e-02   -1.136333272e-01
     5327000000    8.657775074e-02   -1.094614640e-01
     5328000000    9.026917815e-02   -1.087768823e-01
     5329000000    9.097933024e-02   -1.070337817e-01
     5330000000    9.165565670e-02   -1.073569953e-01
     5331000000    9.673417360e-02   -1.028163880e-01
     5332000000    8.962985128e-02   -1.034227535e-01
     5333000000    9.043762088e-02   -1.035155132e-01
     5334000000    9.762825817e-02   -9.628333151e-02
     5335000000    8.939079940e-02   -1.055426374e-01
     5336000000    1.003641188e-01   -9.280108660e-02
     5337000000    9.890044481e-02   -9.374301136e-02
     5338000000    9.034135938e-02   -1.061837748e-01
     5339000000    1.017124131e-01   -8.920808136e-02
     5340000000    9.132541716e-02   -9.494243562e-02
     5341000000    1.043285877e-01   -8.472955972e-02
     5342000000    9.663312882e-02   -9.342530370e-02
     5343000000    9.505014867e-02   -9.219405055e-02
     5344000000    1.134740487e-01   -7.711637020e-02
     5345000000    9.374392778e-02   -8.979990333e-02
     5346000000    1.081670895e-01   -8.108392358e-02
     5347000000    9.959371388e-02   -8.665733039e-02
     5348000000    1.023462117e-01   -8.522109687e-02
     5349000000    1.093901619e-01   -7.435218245e-02
     5350000000    1.071731597e-01   -7.774856687e-02
     5351000000    1.050607562e-01   -7.934188098e-02
     5352000000    1.111500636e-01   -6.885935366e-02
     5353000000    9.897926450e-02   -8.293328434e-02
     5354000000    1.136333272e-01   -6.798676401e-02
     5355000000    1.104171574e-01   -7.526379824e-02
     5356000000    1.092609540e-01   -7.250224054e-02
     5357000000    1.117142960e-01   -6.898768991e-02
     5358000000    1.134205312e-01   -6.937571615e-02
     5359000000    1.182923242e-01   -6.036610156e-02
     5360000000    1.134530753e-01   -6.750442088e-02
     5361000000    1.143880039e-01   -6.815084815e-02
     5362000000    1.158730164e-01   -6.423148513e-02
     5363000000    1.153075323e-01   -6.485313922e-02
     5364000000    1.202792972e-01   -5.838525668e-02
     5365000000    1.218950376e-01   -6.605363637e-02
     5366000000    1.186315715e-01   -6.273164600e-02
     5367000000    1.186277345e-01   -5.692990497e-02
     5368000000    1.203685924e-01   -5.903021991e-02
     5369000000    1.265274137e-01   -5.074127391e-02
     5370000000    1.225543693e-01   -5.717669427e-02
     5371000000    1.238564178e-01   -5.582316592e-02
     5372000000    1.261730641e-01   -4.980771244e-02
     5373000000    1.251091808e-01   -5.340695009e-02
     5374000000    1.293669045e-01   -4.822939634e-02
     5375000000    1.277422756e-01   -5.085489154e-02
     5376000000    1.281711757e-01   -5.595013127e-02
     5377000000    1.276287884e-01   -4.361181334e-02
     5378000000    1.312172562e-01   -4.462092742e-02
     5379000000    1.321227551e-01   -4.362228885e-02
     5380000000    1.270719618e-01   -4.651730135e-02
     5381000000    1.284084171e-01   -4.996829480e-02
     5382000000    1.312871575e-01   -4.016551748e-02
     5383000000    1.351104677e-01   -4.117195308e-02
     5384000000    1.343527883e-01   -4.148723930e-02
     5385000000    1.333688945e-01   -4.153645039e-02
     5386000000    1.343737692e-01   -3.846936300e-02
     5387000000    1.347617358e-01   -3.320085257e-02
     5388000000    1.338385642e-01   -3.744154796e-02
     5389000000    1.362131834e-01   -3.700622544e-02
     5390000000    1.369865388e-01   -3.439363465e-02
     5391000000    1.371000856e-01   -3.196266666e-02
     5392000000    1.396117806e-01   -2.600407973e-02
     5393000000    1.453663111e-01   -2.628377080e-02
     5394000000    1.403449029e-01   -3.300072625e-02
     5395000000    1.397662163e-01   -2.650936879e-02
     5396000000    1.420822442e-01   -2.655529790e-02
     5397000000    1.441163719e-01   -2.369157225e-02
     5398000000    1.452101022e-01   -2.132016607e-02
     5399000000    1.438454539e-01   -2.738886699e-02
     5400000000    1.447762996e-01   -1.389416214e-02
     5401000000    1.464141309e-01   -1.981406100e-02
     5402000000    1.482849121e-01   -1.498163119e-02
     5403000000    1.481277347e-01   -1.627055928e-02
     5404000000    1.499182880e-01   -1.842972822e-02
     5405000000    1.489685178e-01   -8.847673424e-03
     5406000000    1.520716101e-01   -1.033877768e-02
     5407000000    1.560190469e-01   -6.467299536e-03
     5408000000    1.547205895e-01   -1.220551226e-02
     5409000000    1.558978707e-01   -8.066748269e-03
     5410000000    1.525035053e-01   -1.608277671e-03
     5411000000    1.591779441e-01   -4.021344706e-03
     5412000000    1.610272080e-01    2.318876795e-03
     5413000000    1.631059945e-01    2.862228081e-03
     5414000000    1.623618603e-01    4.817824811e-05
     5415000000    1.623526961e-01    4.434231669e-03
     5416000000    1.657043099e-01    2.595200203e-03
     5417000000    1.704164296e-01    7.226046175e-03
     5418000000    1.664014012e-01    5.406570621e-03
     5419000000    1.691385061e-01    7.287757471e-03
     5420000000    1.675565094e-01    1.574642956e-02
     5421000000    1.739904583e-01    1.206060499e-02
     5422000000    1.748396754e-01    1.479141042e-02
     5423000000    1.746775657e-01    1.504728384e-02
     5424000000    1.774876118e-01    1.582326367e-02
     5425000000    1.749945879e-01    2.174857259e-02
     5426000000    1.813373715e-01    1.919256337e-02
     5427000000    1.812313646e-01    1.714242063e-02
     5428000000    1.812993735e-01    2.126599289e-02
     5429000000    1.819839329e-01    1.930438727e-02
     5430000000    1.834224761e-01    2.523301542e-02
     5431000000    1.865546554e-01    2.486037277e-02
     5432000000    1.898559332e-01    2.690733410e-02
     5433000000    1.873819083e-01    2.876406349e-02
     5434000000    1.921615452e-01    2.708421834e-02
     5435000000    1.914388090e-01    3.293266892e-02
     5436000000    1.915530115e-01    3.203516454e-02
     5437000000    1.967009604e-01    2.974261343e-02
     5438000000    1.938906312e-01    3.510799631e-02
     5439000000    1.983368546e-01    3.728431091e-02
     5440000000    1.983937919e-01    4.178367928e-02
     5441000000    2.011983544e-01    3.732331470e-02
     5442000000    2.029529661e-01    4.044619203e-02
     5443000000    1.993882060e-01    4.089091346e-02
     5444000000    2.016145140e-01    4.713818803e-02
     5445000000    2.075002193e-01    4.733531177e-02
     5446000000    2.064031363e-01    4.760970175e-02
     5447000000    2.100869119e-01    4.307636246e-02
     5448000000    2.068995833e-01    5.166343972e-02
     5449000000    2.123690695e-01    4.824538529e-02
     5450000000    2.141336054e-01    5.253475904e-02
     5451000000    2.146124840e-01    5.259551480e-02
     5452000000    2.148866653e-01    5.587364733e-02
     5453000000    2.165042460e-01    5.256871879e-02
     5454000000    2.181565017e-01    5.700778961e-02
     5455000000    2.195474803e-01    5.867184699e-02
     5456000000    2.207186222e-01    5.828172714e-02
     5457000000    2.222670317e-01    5.935268477e-02
     5458000000    2.252738029e-01    6.024822593e-02
     5459000000    2.227358669e-01    6.405593455e-02
     5460000000    2.248533815e-01    6.613836437e-02
     5461000000    2.242119312e-01    6.375665963e-02
     5462000000    2.274522334e-01    6.523519754e-02
     5463000000    2.308743745e-01    6.664600223e-02
     5464000000    2.289362997e-01    7.035785913e-02
     5465000000    2.317812741e-01    7.006209344e-02
     5466000000    2.313773483e-01    6.857750565e-02
     5467000000    2.335415035e-01    6.942454726e-02
     5468000000    2.348310947e-01    7.308752090e-02
     5469000000    2.365582585e-01    7.655443251e-02
     5470000000    2.360937744e-01    7.309037447e-02
     5471000000    2.403291762e-01    7.255175710e-02
     5472000000    2.377432287e-01    7.757382840e-02
     5473000000    2.457402498e-01    7.600120455e-02
     5474000000    2.403928787e-01    7.917705178e-02
     5475000000    2.441575527e-01    8.148010820e-02
     5476000000    2.445968539e-01    7.802331448e-02
     5477000000    2.463398576e-01    8.081619442e-02
     5478000000    2.459629476e-01    8.372838050e-02
     5479000000    2.474070489e-01    8.482639492e-02
     5480000000    2.502817810e-01    8.495246619e-02
     5481000000    2.490579784e-01    8.317061514e-02
     5482000000    2.533083558e-01    8.455669880e-02
     5483000000    2.528983951e-01    8.675662428e-02
     5484000000    2.510845363e-01    8.994724602e-02
     5485000000    2.536286116e-01    8.909859508e-02
     5486000000    2.563501000e-01    8.863169700e-02
     5487000000    2.560226023e-01    9.112690389e-02
     5488000000    2.609125078e-01    9.225793183e-02
     5489000000    2.536746562e-01    9.312070161e-02
     5490000000    2.576326132e-01    9.441383928e-02
     5491000000    2.675406635e-01    9.258490801e-02
     5492000000    2.583405077e-01    9.752124548e-02
     5493000000    2.692815065e-01    9.615984559e-02
     5494000000    2.632003725e-01    9.676278383e-02
     5495000000    2.626850903e-01    9.825702757e-02
     5496000000    2.717117667e-01    1.005837023e-01
     5497000000    2.671718299e-01    1.007851139e-01
     5498000000    2.679374218e-01    1.006027684e-01
     5499000000    2.677282393e-01    1.010615528e-01
     5500000000    2.718121111e-01    1.028328538e-01
     5501000000    2.738272250e-01    1.023546234e-01
     5502000000    2.750100791e-01    1.036509499e-01
     5503000000    2.733597755e-01    1.060897782e-01
     5504000000    2.786074579e-01    1.058231369e-01
     5505000000    2.777914107e-01    1.071807593e-01
     5506000000    2.803958654e-01    1.074640825e-01
     5507000000    2.782436609e-01    1.091243401e-01
     5508000000    2.789433300e-01    1.106567755e-01
     5509000000    2.870786190e-01    1.091783941e-01
     5510000000    2.825067937e-01    1.109268293e-01
     5511000000    2.892406881e-01    1.119092330e-01
     5512000000    2.829878330e-01    1.126690507e-01
     5513000000    2.884000540e-01    1.127734184e-01
     5514000000    2.905915380e-01    1.145193055e-01
     5515000000    2.910709977e-01    1.154368818e-01
     5516000000    2.935913205e-01    1.161937192e-01
     5517000000    2.890763283e-01    1.166901216e-01
     5518000000    2.937780023e-01    1.171661690e-01
     5519000000    3.001139760e-01    1.185972691e-01
     5520000000    2.960082889e-01    1.188869849e-01
     5521000000    2.997175157e-01    1.192339584e-01
     5522000000    2.966757119e-01    1.192244589e-01
     5523000000    2.978479862e-01    1.200912297e-01
     5524000000    3.072002232e-01    1.245763823e-01
     5525000000    3.021960557e-01    1.234174669e-01
     5526000000    3.096894324e-01    1.238901466e-01
     5527000000    3.025526106e-01    1.222113818e-01
     5528000000    3.054804504e-01    1.234089956e-01
     5529000000    3.147088885e-01    1.286422461e-01
     5530000000    3.068413436e-01    1.242946088e-01
     5531000000    3.134447634e-01    1.267084032e-01
     5532000000    3.121057153e-01    1.273731142e-01
     5533000000    3.113466501e-01    1.285530478e-01
     5534000000    3.234943449e-01    1.321360171e-01
     5535000000    3.175837696e-01    1.279924065e-01
     5536000000    3.175028861e-01    1.267494261e-01
     5537000000    3.187776506e-01    1.294766963e-01
     5538000000    3.199054301e-01    1.301789880e-01
     5539000000    3.285360038e-01    1.348843426e-01
     5540000000    3.245135248e-01    1.311589777e-01
     5541000000    3.202886283e-01    1.277912259e-01
     5542000000    3.302742243e-01    1.342913508e-01
     5543000000    3.302747607e-01    1.330828071e-01
     5544000000    3.298805952e-01    1.346631795e-01
     5545000000    3.293890655e-01    1.305877268e-01
     5546000000    3.326000869e-01    1.309804767e-01
     5547000000    3.332222998e-01    1.375935227e-01
     5548000000    3.353279829e-01    1.323554516e-01
     5549000000    3.442683816e-01    1.347537041e-01
     5550000000    3.328736722e-01    1.328924447e-01
     5551000000    3.388611078e-01    1.303844452e-01
     5552000000    3.422320485e-01    1.391276717e-01
     5553000000    3.469567597e-01    1.373140961e-01
     5554000000    3.482719064e-01    1.340429634e-01
     5555000000    3.423883915e-01    1.329727322e-01
     5556000000    3.465347588e-01    1.339358538e-01
     5557000000    3.510494232e-01    1.423887312e-01
     5558000000    3.520486057e-01    1.374290735e-01
     5559000000    3.529706299e-01    1.366982907e-01
     5560000000    3.554578424e-01    1.341626644e-01
     5561000000    3.529602885e-01    1.326239705e-01
     5562000000    3.575038016e-01    1.427313834e-01
     5563000000    3.559590280e-01    1.365084052e-01
     5564000000    3.624047935e-01    1.320198774e-01
     5565000000    3.541417420e-01    1.359349340e-01
     5566000000    3.596681058e-01    1.325332075e-01
     5567000000    3.667914271e-01    1.410131305e-01
     5568000000    3.659100533e-01    1.332254559e-01
     5569000000    3.656725883e-01    1.343510002e-01
     5570000000    3.669655621e-01    1.345760077e-01
     5571000000    3.696344495e-01    1.361549199e-01
     5572000000    3.751511574e-01    1.426725239e-01
     5573000000    3.733509481e-01    1.358573586e-01
     5574000000    3.752565682e-01    1.288206428e-01
     5575000000    3.758958280e-01    1.375414580e-01
     5576000000    3.793396354e-01    1.296356469e-01
     5577000000    3.835043609e-01    1.404681951e-01
     5578000000    3.814006448e-01    1.314553320e-01
     5579000000    3.866407573e-01    1.248345152e-01
     5580000000    3.816746473e-01    1.359788030e-01
     5581000000    3.837118149e-01    1.283937544e-01
     5582000000    3.923296332e-01    1.357947141e-01
     5583000000    3.919617534e-01    1.251374185e-01
     5584000000    3.964228630e-01    1.238428652e-01
     5585000000    3.917114735e-01    1.373222619e-01
     5586000000    3.982397318e-01    1.297762692e-01
     5587000000    3.993133307e-01    1.294348836e-01
     5588000000    4.002162516e-01    1.292176545e-01
     5589000000    4.019296765e-01    1.219320744e-01
     5590000000    3.981615603e-01    1.359871030e-01
     5591000000    4.064262211e-01    1.237428486e-01
     5592000000    4.088580906e-01    1.271697879e-01
     5593000000    4.085385203e-01    1.181780323e-01
     5594000000    4.127239287e-01    1.177467629e-01
     5595000000    4.080557227e-01    1.338547617e-01
     5596000000    4.147696197e-01    1.234253496e-01
     5597000000    4.223525226e-01    1.232062280e-01
     5598000000    4.209904075e-01    1.233171746e-01
     5599000000    4.197701812e-01    1.196696684e-01
     5600000000    4.187113941e-01    1.290852875e-01
     5601000000    4.291264713e-01    1.196259558e-01
     5602000000    4.293463230e-01    1.157256290e-01
     5603000000    4.351159036e-01    1.126568392e-01
     5604000000    4.250490963e-01    1.195255145e-01
     5605000000    4.328243136e-01    1.145104691e-01
     5606000000    4.436426163e-01    1.101629436e-01
     5607000000    4.447309971e-01    1.120954379e-01
     5608000000    4.454428256e-01    1.117126718e-01
     5609000000    4.457909465e-01    1.092858389e-01
     5610000000    4.433329105e-01    1.202791482e-01
     5611000000    4.568179548e-01    1.021611616e-01
     5612000000    4.612950683e-01    9.851375222e-02
     5613000000    4.531330168e-01    1.152002737e-01
     5614000000    4.573696554e-01    1.054001525e-01
     5615000000    4.608309567e-01    1.102175489e-01
     5616000000    4.672147334e-01    1.025032252e-01
     5617000000    4.723795354e-01    9.667265415e-02
     5618000000    4.669553339e-01    9.689180553e-02
     5619000000    4.739061296e-01    1.028002053e-01
     5620000000    4.847704172e-01    9.755249321e-02
     5621000000    4.765109122e-01    1.040074751e-01
     5622000000    4.877153933e-01    8.919442445e-02
     5623000000    4.812121093e-01    9.550429881e-02
     5624000000    4.837730825e-01    9.791606665e-02
     5625000000    4.966201186e-01    8.864402026e-02
     5626000000    4.951356947e-01    8.485840261e-02
     5627000000    4.958473742e-01    8.276034892e-02
     5628000000    4.839601815e-01    1.010989398e-01
     5629000000    5.038281083e-01    7.587643713e-02
     5630000000    5.092557073e-01    7.582628727e-02
     5631000000    5.052646399e-01    8.081384003e-02
     5632000000    5.126489997e-01    7.774855196e-02
     5633000000    5.010142922e-01    8.985212445e-02
     5634000000    5.163772702e-01    7.609914988e-02
     5635000000    5.258955956e-01    6.735896319e-02
     5636000000    5.156138539e-01    7.245710492e-02
     5637000000    5.352641940e-01    6.050674245e-02
     5638000000    5.275307298e-01    6.937035918e-02
     5639000000    5.330104828e-01    6.326311827e-02
     5640000000    5.365873575e-01    5.376663804e-02
     5641000000    5.336570144e-01    6.447461993e-02
     5642000000    5.517958403e-01    4.560591280e-02
     5643000000    5.339407921e-01    6.489615887e-02
     5644000000    5.524699688e-01    5.267653242e-02
     5645000000    5.510055423e-01    4.144902900e-02
     5646000000    5.430586338e-01    6.246840209e-02
     5647000000    5.530053973e-01    4.554146901e-02
     5648000000    5.555253029e-01    4.226237535e-02
     5649000000    5.600109100e-01    4.672988504e-02
     5650000000    5.615668297e-01    4.263859987e-02
     5651000000    5.518940687e-01    4.651950300e-02
     5652000000    5.677475333e-01    3.336964548e-02
     5653000000    5.638366342e-01    1.990328170e-02
     5654000000    5.823241472e-01    2.955899388e-02
     5655000000    5.783130527e-01    2.596533671e-02
     5656000000    5.606247187e-01    3.424062207e-02
     5657000000    5.811092257e-01    2.809903957e-02
     5658000000    5.885514021e-01    8.906716481e-03
     5659000000    5.727719665e-01    3.003469855e-02
     5660000000    5.939264894e-01    8.698065765e-03
     5661000000    5.795431733e-01    1.565677673e-02
     5662000000    5.979132056e-01    1.046020538e-03
     5663000000    5.986717343e-01   -1.198572107e-03
     5664000000    5.938184857e-01    5.847018212e-03
     5665000000    5.925001502e-01    1.379420981e-03
     5666000000    5.913639069e-01    4.633973353e-03
     5667000000    5.990546942e-01    7.015280426e-05
     5668000000    6.109240055e-01   -1.886784285e-02
     5669000000    6.032293439e-01   -3.578299657e-03
     5670000000    6.044655442e-01   -9.476987645e-03
     5671000000    6.088176370e-01   -1.743576117e-02
     5672000000    6.122127771e-01   -1.478761062e-02
     5673000000    6.155897379e-01   -2.369827963e-02
     5674000000    6.147871614e-01   -2.497625723e-02
     5675000000    6.232038736e-01   -3.435077146e-02
     5676000000    6.068083048e-01   -2.347691730e-02
     5677000000    6.257721782e-01   -3.032513522e-02
     5678000000    6.297436953e-01   -4.605075717e-02
     5679000000    6.187295914e-01   -2.405063808e-02
     5680000000    6.247933507e-01   -3.643567115e-02
     5681000000    6.147964001e-01   -3.123966604e-02
     5682000000    6.330180168e-01   -4.682691395e-02
     5683000000    6.447142959e-01   -5.974164233e-02
     5684000000    6.265853643e-01   -4.801757634e-02
     5685000000    6.457543373e-01   -5.355110765e-02
     5686000000    6.388447881e-01   -6.231490523e-02
     5687000000    6.354215145e-01   -5.417481810e-02
     5688000000    6.550974250e-01   -6.408081204e-02
     5689000000    6.401696205e-01   -5.739903823e-02
     5690000000    6.409102082e-01   -6.383347511e-02
     5691000000    6.513206959e-01   -7.750656456e-02
     5692000000    6.438665986e-01   -6.824148446e-02
     5693000000    6.564895511e-01   -8.554092050e-02
     5694000000    6.454792619e-01   -7.648853213e-02
     5695000000    6.497585773e-01   -8.130993694e-02
     5696000000    6.596674919e-01   -9.409308434e-02
     5697000000    6.520503759e-01   -8.017180115e-02
     5698000000    6.596716046e-01   -9.584465623e-02
     5699000000    6.512575746e-01   -9.034018964e-02
     5700000000    6.645845771e-01   -1.058308408e-01
     5701000000    6.766739488e-01   -1.190237924e-01
     5702000000    6.466147304e-01   -8.865132928e-02
     5703000000    6.777386069e-01   -1.253179312e-01
     5704000000    6.570014954e-01   -1.024367213e-01
     5705000000    6.700981259e-01   -1.214766875e-01
     5706000000    6.777828336e-01   -1.325971037e-01
     5707000000    6.661171913e-01   -1.283433586e-01
     5708000000    6.814669967e-01   -1.405088305e-01
     5709000000    6.604893208e-01   -1.279121190e-01
     5710000000    6.556169391e-01   -1.208905280e-01
     5711000000    6.940972209e-01   -1.665570289e-01
     5712000000    6.693285108e-01   -1.436361372e-01
     5713000000    6.867737770e-01   -1.596575528e-01
     5714000000    6.734170914e-01   -1.585004181e-01
     5715000000    6.802384257e-01   -1.665079743e-01
     5716000000    6.729372740e-01   -1.694737375e-01
     5717000000    6.710156798e-01   -1.713737398e-01
     5718000000    6.577969790e-01   -1.653035879e-01
     5719000000    6.850674152e-01   -1.976056546e-01
     5720000000    6.700755954e-01   -1.955386251e-01
     5721000000    6.942439675e-01   -2.209355384e-01
     5722000000    6.651173234e-01   -1.928682774e-01
     5723000000    6.731047034e-01   -2.104842812e-01
     5724000000    6.813713312e-01   -2.189758122e-01
     5725000000    6.536494493e-01   -2.095182836e-01
     5726000000    6.895681620e-01   -2.457166463e-01
     5727000000    6.598016024e-01   -2.180014998e-01
     5728000000    6.691000462e-01   -2.403837740e-01
     5729000000    6.665050983e-01   -2.474656552e-01
     5730000000    6.592903137e-01   -2.462378293e-01
     5731000000    6.716868281e-01   -2.656621039e-01
     5732000000    6.605437994e-01   -2.581967413e-01
     5733000000    6.510801315e-01   -2.595275939e-01
     5734000000    6.623787284e-01   -2.769056559e-01
     5735000000    6.501424313e-01   -2.797549069e-01
     5736000000    6.497259140e-01   -2.895192504e-01
     5737000000    6.416473985e-01   -2.908654511e-01
     5738000000    6.380724311e-01   -2.938280404e-01
     5739000000    6.498278975e-01   -3.125260770e-01
     5740000000    6.287552118e-01   -3.032882512e-01
     5741000000    6.310411692e-01   -3.186021745e-01
     5742000000    6.330828071e-01   -3.156628013e-01
     5743000000    6.240978241e-01   -3.240028322e-01
     5744000000    6.257628798e-01   -3.357399702e-01
     5745000000    6.147022247e-01   -3.336349726e-01
     5746000000    6.128351688e-01   -3.426213264e-01
     5747000000    6.117128730e-01   -3.413839936e-01
     5748000000    6.066370010e-01   -3.546442091e-01
     5749000000    6.109816432e-01   -3.680715263e-01
     5750000000    5.911259055e-01   -3.647221923e-01
     5751000000    5.905454159e-01   -3.709388971e-01
     5752000000    5.911220908e-01   -3.716665208e-01
     5753000000    5.800662041e-01   -3.818538785e-01
     5754000000    5.770649910e-01   -3.913735151e-01
     5755000000    5.667851567e-01   -3.889424801e-01
     5756000000    5.663086772e-01   -3.988801837e-01
     5757000000    5.666611791e-01   -3.962027133e-01
     5758000000    5.438748002e-01   -4.080107510e-01
     5759000000    5.445377827e-01   -4.204019606e-01
     5760000000    5.398489237e-01   -4.162821174e-01
     5761000000    5.302140117e-01   -4.239630699e-01
     5762000000    5.319904685e-01   -4.287233651e-01
     5763000000    5.101202726e-01   -4.397689700e-01
     5764000000    5.024024248e-01   -4.414689243e-01
     5765000000    4.993106425e-01   -4.398666024e-01
     5766000000    4.855132699e-01   -4.469334781e-01
     5767000000    4.923983216e-01   -4.529626966e-01
     5768000000    4.668479562e-01   -4.600464106e-01
     5769000000    4.646472931e-01   -4.629383087e-01
     5770000000    4.608006179e-01   -4.589771032e-01
     5771000000    4.464219213e-01   -4.688393474e-01
     5772000000    4.409329295e-01   -4.681908786e-01
     5773000000    4.206949472e-01   -4.736762941e-01
     5774000000    4.115955234e-01   -4.778926969e-01
     5775000000    4.113309085e-01   -4.693331420e-01
     5776000000    3.967304230e-01   -4.770073593e-01
     5777000000    3.897657990e-01   -4.821076393e-01
     5778000000    3.701806664e-01   -4.820558131e-01
     5779000000    3.624470532e-01   -4.830981493e-01
     5780000000    3.634409606e-01   -4.737794697e-01
     5781000000    3.402563035e-01   -4.846812487e-01
     5782000000    3.397826254e-01   -4.807504416e-01
     5783000000    3.171694875e-01   -4.899548888e-01
     5784000000    3.100777566e-01   -4.843261540e-01
     5785000000    3.146873415e-01   -4.792139828e-01
     5786000000    2.906301320e-01   -4.889522493e-01
     5787000000    2.796332836e-01   -4.855415821e-01
     5788000000    2.683382928e-01   -4.854130149e-01
     5789000000    2.622081041e-01   -4.809972346e-01
     5790000000    2.641523778e-01   -4.783371091e-01
     5791000000    2.364688814e-01   -4.818004966e-01
     5792000000    2.265481204e-01   -4.772480726e-01
     5793000000    2.193999141e-01   -4.801634252e-01
     5794000000    2.062711418e-01   -4.831787348e-01
     5795000000    2.026549876e-01   -4.670720994e-01
     5796000000    1.853801459e-01   -4.782129526e-01
     5797000000    1.670857966e-01   -4.667689800e-01
     5798000000    1.711039990e-01   -4.679715335e-01
     5799000000    1.518738717e-01   -4.552274048e-01
     5800000000    1.562068909e-01   -4.579837918e-01
     5801000000    1.351822317e-01   -4.613661766e-01
     5802000000    1.241302565e-01   -4.465439022e-01
     5803000000    1.201090440e-01   -4.414015114e-01
     5804000000    1.080459282e-01   -4.415331185e-01
     5805000000    1.023269221e-01   -4.286460280e-01
     5806000000    8.970125765e-02   -4.379435182e-01
     5807000000    7.719624788e-02   -4.209660292e-01
     5808000000    7.649860531e-02   -4.147105515e-01
     5809000000    6.382600218e-02   -4.077444375e-01
     5810000000    6.294617802e-02   -4.030508697e-01
     5811000000    4.747571424e-02   -4.006723762e-01
     5812000000    3.688695282e-02   -3.838887215e-01
     5813000000    4.477616772e-02   -3.867003322e-01
     5814000000    3.175218403e-02   -3.872014880e-01
     5815000000    2.485625818e-02   -3.649963140e-01
     5816000000    2.178150974e-02   -3.769279420e-01
     5817000000    8.520967327e-03   -3.572921455e-01
     5818000000    1.267151069e-02   -3.516025841e-01
     5819000000    2.475498244e-03   -3.548157513e-01
     5820000000   -1.471724361e-03   -3.394310772e-01
     5821000000   -7.001313381e-03   -3.508843482e-01
     5822000000   -1.427019853e-02   -3.383656740e-01
     5823000000   -9.721550159e-03   -3.314536512e-01
     5824000000   -2.184811980e-02   -3.299215734e-01
     5825000000   -3.365169838e-02   -3.201638460e-01
     5826000000   -3.629929945e-02   -3.132106066e-01
     5827000000   -3.508961573e-02   -3.193536699e-01
     5828000000   -3.887951747e-02   -2.966063619e-01
     5829000000   -4.602917656e-02   -3.090950251e-01
     5830000000   -5.888832733e-02   -2.883977294e-01
     5831000000   -5.462402478e-02   -2.968015373e-01
     5832000000   -6.527417898e-02   -2.773366272e-01
     5833000000   -7.062643766e-02   -2.693962157e-01
     5834000000   -6.986407936e-02   -2.700222135e-01
     5835000000   -7.825008035e-02   -2.631257176e-01
     5836000000   -7.439909875e-02   -2.623696029e-01
     5837000000   -8.735705912e-02   -2.367077470e-01
     5838000000   -8.431732655e-02   -2.419161052e-01
     5839000000   -9.135727584e-02   -2.394111305e-01
     5840000000   -9.550777078e-02   -2.314421088e-01
     5841000000   -9.294096380e-02   -2.287287563e-01
     5842000000   -1.044224277e-01   -2.086683959e-01
     5843000000   -1.036020219e-01   -2.079799920e-01
     5844000000   -9.766633809e-02   -2.152805179e-01
     5845000000   -1.108280718e-01   -1.890417188e-01
     5846000000   -1.071623564e-01   -1.892222762e-01
     5847000000   -1.064133644e-01   -1.900179684e-01
     5848000000   -1.149432138e-01   -1.731280088e-01
     5849000000   -1.118761227e-01   -1.707528979e-01
     5850000000   -1.214219332e-01   -1.491835713e-01
     5851000000   -1.129516289e-01   -1.587500274e-01
     5852000000   -1.192072257e-01   -1.516823173e-01
     5853000000   -1.217841357e-01   -1.297612339e-01
     5854000000   -1.106178015e-01   -1.368539184e-01
     5855000000   -1.215388849e-01   -1.206073761e-01
     5856000000   -1.216569096e-01   -1.071816310e-01
     5857000000   -1.114318743e-01   -1.184998751e-01
     5858000000   -1.165388674e-01   -1.046574339e-01
     5859000000   -1.157884970e-01   -9.697426111e-02
     5860000000   -1.084159091e-01   -9.502761066e-02
     5861000000   -1.143867821e-01   -8.488705754e-02
     5862000000   -1.065385863e-01   -8.184883744e-02
     5863000000   -1.025804281e-01   -8.004625142e-02
     5864000000   -1.018850878e-01   -7.466350496e-02
     5865000000   -1.057725623e-01   -5.722529069e-02
     5866000000   -1.074222401e-01   -5.698345974e-02
     5867000000   -9.554648399e-02   -5.309810489e-02
     5868000000   -9.727998078e-02   -4.316128418e-02
     5869000000   -8.797438443e-02   -4.812160134e-02
     5870000000   -9.291769564e-02   -3.576671705e-02
     5871000000   -9.152175486e-02   -3.149477765e-02
     5872000000   -7.983306050e-02   -2.954879031e-02
     5873000000   -7.798583061e-02   -2.388298884e-02
     5874000000   -7.557854056e-02   -2.139810286e-02
     5875000000   -7.576898485e-02   -1.419087406e-02
     5876000000   -7.272184640e-02   -1.078829169e-02
     5877000000   -6.187515333e-02   -1.166728325e-02
     5878000000   -6.763023883e-02   -1.098222099e-03
     5879000000   -6.080457196e-02    2.476852387e-05
     5880000000   -5.629710108e-02    4.720132798e-03
     5881000000   -5.880617723e-02    9.866730310e-03
     5882000000   -5.057812110e-02    1.492945664e-02
     5883000000   -4.105052724e-02    1.158872154e-02
     5884000000   -4.161755368e-02    1.713369414e-02
     5885000000   -3.174838051e-02    1.591190137e-02
     5886000000   -3.381181881e-02    2.174278535e-02
     5887000000   -1.480292156e-02    1.900813170e-02
     5888000000   -2.135087736e-02    2.457749657e-02
     5889000000   -2.454565093e-02    2.540949918e-02
     5890000000   -6.054333411e-03    2.510914393e-02
     5891000000   -9.198825806e-03    2.767535672e-02
     5892000000   -6.789316423e-03    3.005406819e-02
     5893000000   -3.624035046e-03    3.391042724e-02
     5894000000   -5.262626335e-03    3.068355843e-02
     5895000000    1.586052403e-02    3.294953704e-02
     5896000000    9.637656622e-03    3.767699748e-02
     5897000000    1.889990643e-02    3.696117550e-02
     5898000000    2.297685668e-02    3.838242218e-02
     5899000000    1.985722035e-02    3.918156773e-02
     5900000000    3.207337856e-02    3.897264600e-02
     5901000000    3.137520328e-02    3.986940905e-02
     5902000000    3.501324728e-02    4.280197620e-02
     5903000000    4.661327973e-02    4.368629307e-02
     5904000000    3.290902823e-02    4.423951730e-02
     5905000000    5.742934719e-02    4.502431303e-02
     5906000000    5.788905546e-02    4.591918737e-02
     5907000000    5.562384799e-02    4.567502439e-02
     5908000000    6.560558826e-02    4.855736345e-02
     5909000000    6.307916343e-02    4.989385977e-02
     5910000000    7.615221292e-02    4.710786045e-02
     5911000000    7.797124237e-02    5.104232207e-02
     5912000000    7.829587162e-02    5.138145015e-02
     5913000000    8.251058310e-02    4.675203562e-02
     5914000000    8.480651677e-02    5.065932497e-02
     5915000000    1.009536609e-01    5.405659974e-02
     5916000000    1.058799997e-01    5.513966084e-02
     5917000000    9.784784913e-02    5.246549100e-02
     5918000000    1.019644663e-01    4.797077179e-02
     5919000000    1.119883433e-01    5.355097353e-02
     5920000000    1.201464832e-01    5.844930932e-02
     5921000000    1.245071664e-01    5.332653597e-02
     5922000000    1.267122328e-01    5.799544975e-02
     5923000000    1.342689544e-01    5.714318156e-02
     5924000000    1.406261027e-01    5.591647699e-02
     5925000000    1.471381336e-01    5.545190722e-02
     5926000000    1.502956450e-01    5.803982168e-02
     5927000000    1.513221860e-01    5.137558281e-02
     5928000000    1.647014022e-01    6.040267646e-02
     5929000000    1.676334441e-01    4.721869156e-02
     5930000000    1.726620942e-01    5.566767976e-02
     5931000000    1.826466471e-01    5.422553793e-02
     5932000000    1.821537018e-01    5.940384790e-02
     5933000000    1.925946623e-01    6.092492118e-02
     5934000000    1.964391470e-01    4.733847454e-02
     5935000000    2.049872279e-01    5.773333833e-02
     5936000000    2.081063837e-01    5.324193463e-02
     5937000000    2.088237405e-01    5.363703892e-02
     5938000000    2.226153314e-01    5.336519703e-02
     5939000000    2.271728516e-01    4.731416330e-02
     5940000000    2.308743149e-01    4.610501230e-02
     5941000000    2.432416379e-01    3.973465413e-02
     5942000000    2.396948934e-01    4.614248872e-02
     5943000000    2.531180978e-01    5.055044219e-02
     5944000000    2.593257427e-01    3.951823711e-02
     5945000000    2.586048245e-01    4.413675889e-02
     5946000000    2.660339475e-01    3.337819502e-02
     5947000000    2.696462572e-01    3.084122762e-02
     5948000000    2.808669508e-01    3.729688749e-02
     5949000000    2.895124257e-01    2.370714583e-02
     5950000000    2.862983644e-01    3.098492138e-02
     5951000000    2.981691658e-01    2.694790997e-02
     5952000000    3.046782315e-01    1.990987547e-02
     5953000000    3.078032136e-01    3.228764236e-02
     5954000000    3.141301870e-01    2.034023963e-02
     5955000000    3.171438575e-01    1.506543253e-02
     5956000000    3.259267211e-01    1.425717399e-02
     5957000000    3.309570849e-01    4.855919629e-03
     5958000000    3.353672922e-01    1.049904712e-02
     5959000000    3.459104598e-01   -5.703872070e-03
     5960000000    3.393231034e-01    3.564115614e-04
     5961000000    3.512118161e-01   -4.351164214e-03
     5962000000    3.591791987e-01   -2.057344094e-02
     5963000000    3.615523577e-01   -1.823537052e-03
     5964000000    3.671081662e-01   -2.333731763e-02
     5965000000    3.705450296e-01   -2.382628620e-02
     5966000000    3.755461872e-01   -2.273068391e-02
     5967000000    3.820147812e-01   -2.988140844e-02
     5968000000    3.820379674e-01   -3.215347603e-02
     5969000000    3.871267736e-01   -4.099986330e-02
     5970000000    3.918556273e-01   -4.601852223e-02
     5971000000    3.893945813e-01   -3.233896568e-02
     5972000000    4.052188396e-01   -6.038490683e-02
     5973000000    3.987780213e-01   -5.554367602e-02
     5974000000    4.108481109e-01   -6.880756468e-02
     5975000000    4.065938294e-01   -5.453116074e-02
     5976000000    4.156892300e-01   -6.885617971e-02
     5977000000    4.305141866e-01   -8.548230678e-02
     5978000000    4.089616537e-01   -5.183809996e-02
     5979000000    4.265679419e-01   -8.790875971e-02
     5980000000    4.216163158e-01   -8.342798054e-02
     5981000000    4.315244257e-01   -9.207550436e-02
     5982000000    4.321352243e-01   -9.878735989e-02
     5983000000    4.326333404e-01   -8.878128976e-02
     5984000000    4.315162897e-01   -9.454862773e-02
     5985000000    4.430879056e-01   -1.079857573e-01
     5986000000    4.345941544e-01   -9.680734575e-02
     5987000000    4.533424675e-01   -1.311055422e-01
     5988000000    4.489776492e-01   -1.118066460e-01
     5989000000    4.614136517e-01   -1.241132468e-01
     5990000000    4.593308270e-01   -1.395478249e-01
     5991000000    4.482985437e-01   -1.299899668e-01
     5992000000    4.593334794e-01   -1.496753991e-01
     5993000000    4.431625307e-01   -1.190491095e-01
     5994000000    4.722357094e-01   -1.633864939e-01
     5995000000    4.693312943e-01   -1.680825949e-01
     5996000000    4.724594653e-01   -1.645228416e-01
     5997000000    4.718758762e-01   -1.716891527e-01
     5998000000    4.753889441e-01   -1.750961989e-01
     5999000000    4.679718316e-01   -1.714794487e-01
     6000000000    4.874992073e-01   -2.032363415e-01
     6001000000    4.670509398e-01   -1.784449220e-01
     6002000000    4.732477963e-01   -1.960003674e-01
     6003000000    4.787684083e-01   -1.957888454e-01
     6004000000    4.779024422e-01   -2.096680254e-01
     6005000000    4.786359668e-01   -2.127372921e-01
     6006000000    4.797606766e-01   -2.164026648e-01
     6007000000    4.849348962e-01   -2.364985049e-01
     6008000000    4.893350303e-01   -2.317142487e-01
     6009000000    4.803148508e-01   -2.442629784e-01
     6010000000    4.848834872e-01   -2.604719102e-01
     6011000000    4.707435966e-01   -2.413453162e-01
     6012000000    4.819816053e-01   -2.702970505e-01
     6013000000    4.846180379e-01   -2.663664520e-01
     6014000000    4.782245755e-01   -2.727968097e-01
     6015000000    4.854021668e-01   -2.933176458e-01
     6016000000    4.811547101e-01   -2.865512967e-01
     6017000000    4.831547439e-01   -3.026209176e-01
     6018000000    4.768586159e-01   -2.969296575e-01
     6019000000    4.625976980e-01   -3.117793798e-01
     6020000000    4.763377011e-01   -3.294731081e-01
     6021000000    4.695989788e-01   -3.233209550e-01
     6022000000    4.598299265e-01   -3.375307620e-01
     6023000000    4.688835442e-01   -3.444503844e-01
     6024000000    4.417563081e-01   -3.565477729e-01
     6025000000    4.500486851e-01   -3.638008535e-01
     6026000000    4.491315484e-01   -3.589073122e-01
     6027000000    4.409683049e-01   -3.753113151e-01
     6028000000    4.406431317e-01   -3.825570047e-01
     6029000000    4.369001091e-01   -3.948234022e-01
     6030000000    4.324399531e-01   -4.034034312e-01
     6031000000    4.272065759e-01   -3.985687792e-01
     6032000000    4.139716327e-01   -4.116454720e-01
     6033000000    4.177490771e-01   -4.187987745e-01
     6034000000    3.948958516e-01   -4.258376658e-01
     6035000000    3.978033364e-01   -4.371559024e-01
     6036000000    3.972988129e-01   -4.415004551e-01
     6037000000    3.763466179e-01   -4.466230273e-01
     6038000000    3.781471848e-01   -4.560297728e-01
     6039000000    3.529814184e-01   -4.613565505e-01
     6040000000    3.511912525e-01   -4.677017927e-01
     6041000000    3.553949594e-01   -4.639766216e-01
     6042000000    3.384026587e-01   -4.808243215e-01
     6043000000    3.277584910e-01   -4.857252240e-01
     6044000000    3.082414865e-01   -4.869355261e-01
     6045000000    2.994895577e-01   -4.971448481e-01
     6046000000    3.042694032e-01   -4.893974364e-01
     6047000000    2.858549058e-01   -5.026729703e-01
     6048000000    2.704055309e-01   -5.080304146e-01
     6049000000    2.566856444e-01   -5.105108619e-01
     6050000000    2.499740869e-01   -5.101635456e-01
     6051000000    2.530961037e-01   -5.050079823e-01
     6052000000    2.226568311e-01   -5.207390785e-01
     6053000000    2.207180411e-01   -5.149254799e-01
     6054000000    2.007766068e-01   -5.205252767e-01
     6055000000    1.931059211e-01   -5.193979740e-01
     6056000000    1.958893687e-01   -5.118744373e-01
     6057000000    1.604315192e-01   -5.284485221e-01
     6058000000    1.506680697e-01   -5.253713131e-01
     6059000000    1.436830014e-01   -5.262367129e-01
     6060000000    1.271112114e-01   -5.272693634e-01
     6061000000    1.301272511e-01   -5.182178617e-01
     6062000000    9.820257872e-02   -5.342503786e-01
     6063000000    8.237470686e-02   -5.340185761e-01
     6064000000    8.658386767e-02   -5.211296678e-01
     6065000000    6.439580768e-02   -5.282203555e-01
     6066000000    6.866908073e-02   -5.111982822e-01
     6067000000    3.719009459e-02   -5.302118063e-01
     6068000000    2.714833990e-02   -5.171816945e-01
     6069000000    2.249870449e-02   -5.194521546e-01
     6070000000    1.457759179e-03   -5.170091987e-01
     6071000000   -5.751047283e-04   -5.129759312e-01
     6072000000   -3.038343787e-02   -5.186200142e-01
     6073000000   -3.838123754e-02   -5.047996044e-01
     6074000000   -4.219917208e-02   -5.081757307e-01
     6075000000   -6.218012795e-02   -5.031721592e-01
     6076000000   -6.761821359e-02   -4.908390343e-01
     6077000000   -8.518741280e-02   -5.024895072e-01
     6078000000   -1.000595763e-01   -4.849072099e-01
     6079000000   -9.811196476e-02   -4.691731036e-01
     6080000000   -1.259184331e-01   -4.760580659e-01
     6081000000   -1.286298633e-01   -4.695485830e-01
     6082000000   -1.451914012e-01   -4.713715613e-01
     6083000000   -1.599306613e-01   -4.536306560e-01
     6084000000   -1.556569338e-01   -4.532331824e-01
     6085000000   -1.771520227e-01   -4.532325864e-01
     6086000000   -1.901290715e-01   -4.359309375e-01
     6087000000   -1.989203095e-01   -4.348055720e-01
     6088000000   -2.138785720e-01   -4.246994257e-01
     6089000000   -2.104682773e-01   -4.179186225e-01
     6090000000   -2.340484709e-01   -4.128244221e-01
     6091000000   -2.471796125e-01   -3.902624846e-01
     6092000000   -2.515679002e-01   -4.008867741e-01
     6093000000   -2.620835304e-01   -3.812999725e-01
     6094000000   -2.598268688e-01   -3.787902892e-01
     6095000000   -2.789820433e-01   -3.844330311e-01
     6096000000   -2.904370129e-01   -3.520378172e-01
     6097000000   -2.954786718e-01   -3.577452898e-01
     6098000000   -3.067882359e-01   -3.232252598e-01
     6099000000   -3.026319742e-01   -3.380419314e-01
     6100000000   -3.216731548e-01   -3.139868081e-01
     6101000000   -3.331280947e-01   -3.144571781e-01
     6102000000   -3.283746541e-01   -3.012080491e-01
     6103000000   -3.405210972e-01   -2.921974063e-01
     6104000000   -3.433266282e-01   -2.846152484e-01
     6105000000   -3.591347337e-01   -2.688974738e-01
     6106000000   -3.663451970e-01   -2.367337793e-01
     6107000000   -3.613988459e-01   -2.671493888e-01
     6108000000   -3.729130328e-01   -2.360481173e-01
     6109000000   -3.742272854e-01   -2.256826013e-01
     6110000000   -3.810230196e-01   -2.228216678e-01
     6111000000   -3.843351305e-01   -2.067308277e-01
     6112000000   -3.893978298e-01   -2.078683972e-01
     6113000000   -3.913921714e-01   -1.833458841e-01
     6114000000   -3.951921165e-01   -1.992035657e-01
     6115000000   -4.013921022e-01   -1.718135178e-01
     6116000000   -4.047475159e-01   -1.654310673e-01
     6117000000   -4.049558938e-01   -1.677502096e-01
     6118000000   -4.112628400e-01   -1.516995728e-01
     6119000000   -4.116205871e-01   -1.211465672e-01
     6120000000   -4.151044488e-01   -1.356102079e-01
     6121000000   -4.212975204e-01   -8.805425465e-02
     6122000000   -4.241244197e-01   -1.084450781e-01
     6123000000   -4.173095226e-01   -1.120259985e-01
     6124000000   -4.256580174e-01   -6.875994802e-02
     6125000000   -4.235526323e-01   -8.032015711e-02
     6126000000   -4.276350737e-01   -5.991369113e-02
     6127000000   -4.291464686e-01   -5.641744658e-02
     6128000000   -4.244997501e-01   -6.922089309e-02
     6129000000   -4.273043275e-01   -4.600775614e-02
     6130000000   -4.327818155e-01   -2.820095420e-02
     6131000000   -4.289216399e-01   -3.893800080e-02
     6132000000   -4.372558296e-01   -4.200054333e-03
     6133000000   -4.209304750e-01   -2.810454741e-02
     6134000000   -4.253273904e-01   -2.871109173e-03
     6135000000   -4.284720421e-01    5.258703604e-04
     6136000000   -4.247266650e-01    1.634909026e-02
     6137000000   -4.330790043e-01    1.509188116e-02
     6138000000   -4.254993796e-01    2.996684052e-02
     6139000000   -4.233420789e-01    3.384469077e-02
     6140000000   -4.304608703e-01    3.677979484e-02
     6141000000   -4.260840714e-01    6.770419329e-02
     6142000000   -4.261457324e-01    4.998678342e-02
     6143000000   -4.205488861e-01    6.794347614e-02
     6144000000   -4.219194055e-01    7.593139261e-02
     6145000000   -4.222247005e-01    7.750547677e-02
     6146000000   -4.187983871e-01    9.051316231e-02
     6147000000   -4.184804559e-01    8.979742229e-02
     6148000000   -4.121322036e-01    9.920385480e-02
     6149000000   -4.061240554e-01    1.066187546e-01
     6150000000   -4.119153023e-01    1.007003188e-01
     6151000000   -4.060715735e-01    1.164234132e-01
     6152000000   -4.082813859e-01    1.321151108e-01
     6153000000   -3.968386650e-01    1.278545558e-01
     6154000000   -4.006390572e-01    1.474309266e-01
     6155000000   -4.074050188e-01    1.295773238e-01
     6156000000   -3.971443474e-01    1.505862176e-01
     6157000000   -3.914264143e-01    1.599348485e-01
     6158000000   -3.832980096e-01    1.525212377e-01
     6159000000   -3.852770627e-01    1.714135855e-01
     6160000000   -3.962637186e-01    1.595882028e-01
     6161000000   -3.836781085e-01    1.728573591e-01
     6162000000   -3.761299849e-01    1.834883839e-01
     6163000000   -3.726580441e-01    1.868644953e-01
     6164000000   -3.725605905e-01    1.959244311e-01
     6165000000   -3.783213496e-01    1.863768250e-01
     6166000000   -3.616661727e-01    2.013834864e-01
     6167000000   -3.599494100e-01    2.088951021e-01
     6168000000   -3.543882370e-01    2.091136575e-01
     6169000000   -3.584128022e-01    2.129104286e-01
     6170000000   -3.697450459e-01    2.178909928e-01
     6171000000   -3.426224589e-01    2.136333436e-01
     6172000000   -3.456745148e-01    2.357018590e-01
     6173000000   -3.427940309e-01    2.262165844e-01
     6174000000   -3.369187415e-01    2.336893827e-01
     6175000000   -3.450581133e-01    2.342816740e-01
     6176000000   -3.288349807e-01    2.348734587e-01
     6177000000   -3.247902989e-01    2.451660037e-01
     6178000000   -3.275663555e-01    2.414979935e-01
     6179000000   -3.169029355e-01    2.447568029e-01
     6180000000   -3.234628737e-01    2.531828582e-01
     6181000000   -3.039903939e-01    2.573956251e-01
     6182000000   -3.097653091e-01    2.623885870e-01
     6183000000   -3.110529482e-01    2.546365857e-01
     6184000000   -3.059745133e-01    2.654732466e-01
     6185000000   -3.087232113e-01    2.678418159e-01
     6186000000   -2.879344523e-01    2.717937827e-01
     6187000000   -2.912741899e-01    2.798925638e-01
     6188000000   -3.013640046e-01    2.661220133e-01
     6189000000   -2.866280973e-01    2.832942903e-01
     6190000000   -2.837457061e-01    2.787468433e-01
     6191000000   -2.733389437e-01    2.900106907e-01
     6192000000   -2.693261802e-01    2.924070656e-01
     6193000000   -2.775320709e-01    2.833195329e-01
     6194000000   -2.625339329e-01    2.965005636e-01
     6195000000   -2.630419731e-01    2.992506325e-01
     6196000000   -2.532120645e-01    2.988303006e-01
     6197000000   -2.498154640e-01    3.035183847e-01
     6198000000   -2.561960220e-01    2.949707210e-01
     6199000000   -2.391713858e-01    3.087380230e-01
     6200000000   -2.383176386e-01    3.075245917e-01
     6201000000   -2.348858714e-01    3.083190024e-01
     6202000000   -2.267785966e-01    3.164137900e-01
     6203000000   -2.277684063e-01    3.079048395e-01
     6204000000   -2.156254798e-01    3.190225959e-01
     6205000000   -2.115506679e-01    3.240485191e-01
     6206000000   -2.071275562e-01    3.140614033e-01
     6207000000   -2.039728761e-01    3.220970333e-01
     6208000000   -2.030259818e-01    3.188785315e-01
     6209000000   -1.903278381e-01    3.312187493e-01
     6210000000   -1.868598908e-01    3.302861452e-01
     6211000000   -1.854949296e-01    3.231981695e-01
     6212000000   -1.777164489e-01    3.286055028e-01
     6213000000   -1.779941469e-01    3.229869008e-01
     6214000000   -1.666757613e-01    3.374196887e-01
     6215000000   -1.584887058e-01    3.380780220e-01
     6216000000   -1.597673446e-01    3.308613896e-01
     6217000000   -1.539561301e-01    3.359268606e-01
     6218000000   -1.461855173e-01    3.305281699e-01
     6219000000   -1.384054273e-01    3.420614004e-01
     6220000000   -1.356683224e-01    3.417453468e-01
     6221000000   -1.363820434e-01    3.353930116e-01
     6222000000   -1.271746308e-01    3.402939439e-01
     6223000000   -1.219080091e-01    3.423457444e-01
     6224000000   -1.144517809e-01    3.495423794e-01
     6225000000   -1.079974622e-01    3.425965011e-01
     6226000000   -1.061302647e-01    3.366068304e-01
     6227000000   -9.831967205e-02    3.466269672e-01
     6228000000   -9.502372146e-02    3.438742757e-01
     6229000000   -8.604053408e-02    3.537295163e-01
     6230000000   -8.199553937e-02    3.501887918e-01
     6231000000   -8.082503080e-02    3.384052813e-01
     6232000000   -7.581111789e-02    3.514755964e-01
     6233000000   -6.720526516e-02    3.534968495e-01
     6234000000   -6.524848938e-02    3.568101227e-01
     6235000000   -5.937766284e-02    3.489135504e-01
     6236000000   -5.538421124e-02    3.413037360e-01
     6237000000   -4.907180369e-02    3.539758921e-01
     6238000000   -4.148023203e-02    3.532698154e-01
     6239000000   -4.092155397e-02    3.530901968e-01
     6240000000   -3.007156774e-02    3.547547162e-01
     6241000000   -2.372823842e-02    3.444394171e-01
     6242000000   -2.479075454e-02    3.598286211e-01
     6243000000   -1.674353145e-02    3.618014455e-01
     6244000000   -1.600167155e-02    3.531791270e-01
     6245000000   -9.806380607e-03    3.576711118e-01
     6246000000   -2.294169739e-03    3.550799787e-01
     6247000000    1.278350130e-03    3.611007035e-01
     6248000000    1.039880794e-02    3.578501642e-01
     6249000000    1.014697645e-02    3.568368554e-01
     6250000000    1.758316718e-02    3.560190499e-01
     6251000000    2.925868705e-02    3.505838215e-01
     6252000000    2.987868525e-02    3.636454344e-01
     6253000000    3.546683863e-02    3.617002964e-01
     6254000000    3.661064431e-02    3.544451594e-01
     6255000000    4.707945883e-02    3.579187989e-01
     6256000000    5.124253035e-02    3.625338972e-01
     6257000000    4.995881021e-02    3.728478551e-01
     6258000000    6.243981794e-02    3.635472953e-01
     6259000000    5.898954719e-02    3.576149940e-01
     6260000000    7.510088384e-02    3.567130268e-01
     6261000000    8.634213358e-02    3.525220156e-01
     6262000000    7.018714398e-02    3.697761595e-01
     6263000000    8.474148065e-02    3.643166125e-01
     6264000000    8.801723272e-02    3.621929586e-01
     6265000000    9.676332027e-02    3.626676798e-01
     6266000000    1.023451313e-01    3.622267246e-01
     6267000000    1.019347236e-01    3.626846671e-01
     6268000000    9.511110932e-02    3.711323440e-01
     6269000000    1.265553385e-01    3.512523770e-01
     6270000000    1.100234315e-01    3.675922751e-01
     6271000000    1.318765283e-01    3.633081019e-01
     6272000000    1.231461540e-01    3.599488735e-01
     6273000000    1.485383958e-01    3.554353714e-01
     6274000000    1.485397220e-01    3.528246880e-01
     6275000000    1.327118427e-01    3.639503121e-01
     6276000000    1.698173136e-01    3.606254458e-01
     6277000000    1.470214725e-01    3.571533263e-01
     6278000000    1.643297821e-01    3.592284322e-01
     6279000000    1.656971872e-01    3.588952720e-01
     6280000000    1.661309004e-01    3.592303991e-01
     6281000000    1.759686917e-01    3.643747866e-01
     6282000000    1.728212535e-01    3.594227135e-01
     6283000000    1.935704499e-01    3.506641984e-01
     6284000000    1.735145152e-01    3.613830507e-01
     6285000000    1.907493174e-01    3.620351255e-01
     6286000000    1.889900267e-01    3.615113795e-01
     6287000000    2.002997100e-01    3.520803154e-01
     6288000000    2.072834969e-01    3.574630022e-01
     6289000000    2.212078273e-01    3.600749075e-01
     6290000000    2.021708190e-01    3.592161536e-01
     6291000000    2.229328901e-01    3.585871458e-01
     6292000000    2.205320150e-01    3.564284146e-01
     6293000000    2.226019949e-01    3.510933518e-01
     6294000000    2.532433569e-01    3.545309901e-01
     6295000000    2.273625731e-01    3.553845584e-01
     6296000000    2.370154858e-01    3.544874787e-01
     6297000000    2.289393693e-01    3.569645286e-01
     6298000000    2.482554018e-01    3.546681404e-01
     6299000000    2.626740336e-01    3.555494845e-01
     6300000000    2.386379242e-01    3.605956733e-01
