! Generated by EMerge - 1-port S-parameters
! File generated: 2026-02-13 00:01 
# GHZ S RI R 50
5.300000e+00  5.884395e-01  5.964883e-01
5.301000e+00  5.920523e-01  5.928648e-01
5.302000e+00  5.956416e-01  5.892158e-01
5.303000e+00  5.992072e-01  5.855414e-01
5.304000e+00  6.027489e-01  5.818418e-01
5.305000e+00  6.062665e-01  5.781173e-01
5.306000e+00  6.097598e-01  5.743679e-01
5.307000e+00  6.132287e-01  5.705938e-01
5.308000e+00  6.166729e-01  5.667952e-01
5.309000e+00  6.200923e-01  5.629723e-01
5.310000e+00  6.234866e-01  5.591252e-01
5.311000e+00  6.268557e-01  5.552542e-01
5.312000e+00  6.301993e-01  5.513594e-01
5.313000e+00  6.335174e-01  5.474410e-01
5.314000e+00  6.368096e-01  5.434991e-01
5.315000e+00  6.400759e-01  5.395340e-01
5.316000e+00  6.433161e-01  5.355458e-01
5.317000e+00  6.465299e-01  5.315347e-01
5.318000e+00  6.497172e-01  5.275009e-01
5.319000e+00  6.528778e-01  5.234446e-01
5.320000e+00  6.560116e-01  5.193660e-01
5.321000e+00  6.591183e-01  5.152652e-01
5.322000e+00  6.621979e-01  5.111425e-01
5.323000e+00  6.652501e-01  5.069980e-01
5.324000e+00  6.682747e-01  5.028320e-01
5.325000e+00  6.712717e-01  4.986446e-01
5.326000e+00  6.742407e-01  4.944360e-01
5.327000e+00  6.771818e-01  4.902064e-01
5.328000e+00  6.800947e-01  4.859560e-01
5.329000e+00  6.829792e-01  4.816850e-01
5.330000e+00  6.858352e-01  4.773937e-01
5.331000e+00  6.886626e-01  4.730821e-01
5.332000e+00  6.914612e-01  4.687506e-01
5.333000e+00  6.942308e-01  4.643992e-01
5.334000e+00  6.969712e-01  4.600283e-01
5.335000e+00  6.996824e-01  4.556379e-01
5.336000e+00  7.023642e-01  4.512283e-01
5.337000e+00  7.050165e-01  4.467998e-01
5.338000e+00  7.076390e-01  4.423525e-01
5.339000e+00  7.102317e-01  4.378866e-01
5.340000e+00  7.127944e-01  4.334023e-01
5.341000e+00  7.153269e-01  4.288998e-01
5.342000e+00  7.178292e-01  4.243794e-01
5.343000e+00  7.203011e-01  4.198412e-01
5.344000e+00  7.227424e-01  4.152855e-01
5.345000e+00  7.251531e-01  4.107124e-01
5.346000e+00  7.275330e-01  4.061222e-01
5.347000e+00  7.298819e-01  4.015150e-01
5.348000e+00  7.321997e-01  3.968912e-01
5.349000e+00  7.344864e-01  3.922508e-01
5.350000e+00  7.367417e-01  3.875942e-01
5.351000e+00  7.389656e-01  3.829215e-01
5.352000e+00  7.411579e-01  3.782329e-01
5.353000e+00  7.433185e-01  3.735286e-01
5.354000e+00  7.454473e-01  3.688090e-01
5.355000e+00  7.475442e-01  3.640740e-01
5.356000e+00  7.496090e-01  3.593241e-01
5.357000e+00  7.516417e-01  3.545594e-01
5.358000e+00  7.536421e-01  3.497801e-01
5.359000e+00  7.556101e-01  3.449864e-01
5.360000e+00  7.575455e-01  3.401786e-01
5.361000e+00  7.594484e-01  3.353568e-01
5.362000e+00  7.613185e-01  3.305213e-01
5.363000e+00  7.631558e-01  3.256724e-01
5.364000e+00  7.649602e-01  3.208101e-01
5.365000e+00  7.667315e-01  3.159348e-01
5.366000e+00  7.684697e-01  3.110466e-01
5.367000e+00  7.701746e-01  3.061458e-01
5.368000e+00  7.718461e-01  3.012325e-01
5.369000e+00  7.734842e-01  2.963071e-01
5.370000e+00  7.750888e-01  2.913697e-01
5.371000e+00  7.766597e-01  2.864206e-01
5.372000e+00  7.781968e-01  2.814599e-01
5.373000e+00  7.797001e-01  2.764879e-01
5.374000e+00  7.811695e-01  2.715048e-01
5.375000e+00  7.826048e-01  2.665108e-01
5.376000e+00  7.840061e-01  2.615062e-01
5.377000e+00  7.853731e-01  2.564912e-01
5.378000e+00  7.867058e-01  2.514659e-01
5.379000e+00  7.880041e-01  2.464306e-01
5.380000e+00  7.892679e-01  2.413856e-01
5.381000e+00  7.904972e-01  2.363310e-01
5.382000e+00  7.916919e-01  2.312672e-01
5.383000e+00  7.928518e-01  2.261942e-01
5.384000e+00  7.939769e-01  2.211123e-01
5.385000e+00  7.950671e-01  2.160218e-01
5.386000e+00  7.961223e-01  2.109228e-01
5.387000e+00  7.971424e-01  2.058157e-01
5.388000e+00  7.981275e-01  2.007005e-01
5.389000e+00  7.990773e-01  1.955776e-01
5.390000e+00  7.999918e-01  1.904471e-01
5.391000e+00  8.008710e-01  1.853094e-01
5.392000e+00  8.017147e-01  1.801645e-01
5.393000e+00  8.025230e-01  1.750128e-01
5.394000e+00  8.032956e-01  1.698544e-01
5.395000e+00  8.040326e-01  1.646897e-01
5.396000e+00  8.047338e-01  1.595187e-01
5.397000e+00  8.053993e-01  1.543418e-01
5.398000e+00  8.060288e-01  1.491591e-01
5.399000e+00  8.066225e-01  1.439709e-01
5.400000e+00  8.071801e-01  1.387775e-01
5.401000e+00  8.077017e-01  1.335790e-01
5.402000e+00  8.081871e-01  1.283756e-01
5.403000e+00  8.086363e-01  1.231676e-01
5.404000e+00  8.090493e-01  1.179553e-01
5.405000e+00  8.094259e-01  1.127388e-01
5.406000e+00  8.097661e-01  1.075184e-01
5.407000e+00  8.100699e-01  1.022943e-01
5.408000e+00  8.103372e-01  9.706668e-02
5.409000e+00  8.105678e-01  9.183586e-02
5.410000e+00  8.107618e-01  8.660203e-02
5.411000e+00  8.109192e-01  8.136542e-02
5.412000e+00  8.110397e-01  7.612625e-02
5.413000e+00  8.111235e-01  7.088477e-02
5.414000e+00  8.111703e-01  6.564120e-02
5.415000e+00  8.111802e-01  6.039576e-02
5.416000e+00  8.111532e-01  5.514870e-02
5.417000e+00  8.110890e-01  4.990024e-02
5.418000e+00  8.109878e-01  4.465061e-02
5.419000e+00  8.108494e-01  3.940006e-02
5.420000e+00  8.106738e-01  3.414880e-02
5.421000e+00  8.104609e-01  2.889707e-02
5.422000e+00  8.102107e-01  2.364511e-02
5.423000e+00  8.099232e-01  1.839315e-02
5.424000e+00  8.095982e-01  1.314143e-02
5.425000e+00  8.092357e-01  7.890177e-03
5.426000e+00  8.088356e-01  2.639632e-03
5.427000e+00  8.083980e-01  -2.609970e-03
5.428000e+00  8.079228e-01  -7.858392e-03
5.429000e+00  8.074099e-01  -1.310540e-02
5.430000e+00  8.068592e-01  -1.835074e-02
5.431000e+00  8.062707e-01  -2.359420e-02
5.432000e+00  8.056445e-01  -2.883552e-02
5.433000e+00  8.049803e-01  -3.407446e-02
5.434000e+00  8.042782e-01  -3.931079e-02
5.435000e+00  8.035381e-01  -4.454426e-02
5.436000e+00  8.027600e-01  -4.977464e-02
5.437000e+00  8.019438e-01  -5.500166e-02
5.438000e+00  8.010894e-01  -6.022511e-02
5.439000e+00  8.001969e-01  -6.544472e-02
5.440000e+00  7.992662e-01  -7.066025e-02
5.441000e+00  7.982972e-01  -7.587146e-02
5.442000e+00  7.972900e-01  -8.107810e-02
5.443000e+00  7.962443e-01  -8.627992e-02
5.444000e+00  7.951603e-01  -9.147666e-02
5.445000e+00  7.940378e-01  -9.666809e-02
5.446000e+00  7.928768e-01  -1.018539e-01
5.447000e+00  7.916773e-01  -1.070340e-01
5.448000e+00  7.904392e-01  -1.122079e-01
5.449000e+00  7.891625e-01  -1.173756e-01
5.450000e+00  7.878471e-01  -1.225366e-01
5.451000e+00  7.864930e-01  -1.276908e-01
5.452000e+00  7.851001e-01  -1.328379e-01
5.453000e+00  7.836685e-01  -1.379776e-01
5.454000e+00  7.821980e-01  -1.431097e-01
5.455000e+00  7.806886e-01  -1.482339e-01
5.456000e+00  7.791403e-01  -1.533499e-01
5.457000e+00  7.775531e-01  -1.584576e-01
5.458000e+00  7.759268e-01  -1.635565e-01
5.459000e+00  7.742615e-01  -1.686465e-01
5.460000e+00  7.725571e-01  -1.737273e-01
5.461000e+00  7.708136e-01  -1.787986e-01
5.462000e+00  7.690309e-01  -1.838601e-01
5.463000e+00  7.672090e-01  -1.889116e-01
5.464000e+00  7.653479e-01  -1.939528e-01
5.465000e+00  7.634475e-01  -1.989834e-01
5.466000e+00  7.615077e-01  -2.040031e-01
5.467000e+00  7.595286e-01  -2.090117e-01
5.468000e+00  7.575101e-01  -2.140088e-01
5.469000e+00  7.554522e-01  -2.189942e-01
5.470000e+00  7.533548e-01  -2.239676e-01
5.471000e+00  7.512178e-01  -2.289287e-01
5.472000e+00  7.490414e-01  -2.338772e-01
5.473000e+00  7.468253e-01  -2.388128e-01
5.474000e+00  7.445696e-01  -2.437353e-01
5.475000e+00  7.422743e-01  -2.486443e-01
5.476000e+00  7.399393e-01  -2.535395e-01
5.477000e+00  7.375645e-01  -2.584206e-01
5.478000e+00  7.351501e-01  -2.632874e-01
5.479000e+00  7.326958e-01  -2.681395e-01
5.480000e+00  7.302017e-01  -2.729765e-01
5.481000e+00  7.276677e-01  -2.777983e-01
5.482000e+00  7.250939e-01  -2.826045e-01
5.483000e+00  7.224801e-01  -2.873947e-01
5.484000e+00  7.198264e-01  -2.921687e-01
5.485000e+00  7.171328e-01  -2.969260e-01
5.486000e+00  7.143991e-01  -3.016665e-01
5.487000e+00  7.116254e-01  -3.063898e-01
5.488000e+00  7.088116e-01  -3.110955e-01
5.489000e+00  7.059578e-01  -3.157833e-01
5.490000e+00  7.030639e-01  -3.204529e-01
5.491000e+00  7.001298e-01  -3.251039e-01
5.492000e+00  6.971556e-01  -3.297360e-01
5.493000e+00  6.941412e-01  -3.343489e-01
5.494000e+00  6.910866e-01  -3.389421e-01
5.495000e+00  6.879918e-01  -3.435154e-01
5.496000e+00  6.848568e-01  -3.480684e-01
5.497000e+00  6.816815e-01  -3.526007e-01
5.498000e+00  6.784660e-01  -3.571120e-01
5.499000e+00  6.752101e-01  -3.616019e-01
5.500000e+00  6.719140e-01  -3.660701e-01
5.501000e+00  6.685776e-01  -3.705161e-01
5.502000e+00  6.652008e-01  -3.749396e-01
5.503000e+00  6.617837e-01  -3.793402e-01
5.504000e+00  6.583263e-01  -3.837175e-01
5.505000e+00  6.548286e-01  -3.880712e-01
5.506000e+00  6.512905e-01  -3.924008e-01
5.507000e+00  6.477120e-01  -3.967060e-01
5.508000e+00  6.440932e-01  -4.009863e-01
5.509000e+00  6.404341e-01  -4.052414e-01
5.510000e+00  6.367346e-01  -4.094708e-01
5.511000e+00  6.329948e-01  -4.136741e-01
5.512000e+00  6.292146e-01  -4.178510e-01
5.513000e+00  6.253941e-01  -4.220009e-01
5.514000e+00  6.215334e-01  -4.261236e-01
5.515000e+00  6.176323e-01  -4.302184e-01
5.516000e+00  6.136909e-01  -4.342851e-01
5.517000e+00  6.097093e-01  -4.383231e-01
5.518000e+00  6.056875e-01  -4.423320e-01
5.519000e+00  6.016254e-01  -4.463114e-01
5.520000e+00  5.975232e-01  -4.502609e-01
5.521000e+00  5.933808e-01  -4.541799e-01
5.522000e+00  5.891983e-01  -4.580680e-01
5.523000e+00  5.849757e-01  -4.619247e-01
5.524000e+00  5.807131e-01  -4.657496e-01
5.525000e+00  5.764105e-01  -4.695421e-01
5.526000e+00  5.720680e-01  -4.733019e-01
5.527000e+00  5.676856e-01  -4.770284e-01
5.528000e+00  5.632633e-01  -4.807210e-01
5.529000e+00  5.588012e-01  -4.843794e-01
5.530000e+00  5.542995e-01  -4.880030e-01
5.531000e+00  5.497581e-01  -4.915913e-01
5.532000e+00  5.451771e-01  -4.951438e-01
5.533000e+00  5.405566e-01  -4.986600e-01
5.534000e+00  5.358967e-01  -5.021392e-01
5.535000e+00  5.311975e-01  -5.055811e-01
5.536000e+00  5.264590e-01  -5.089851e-01
5.537000e+00  5.216814e-01  -5.123505e-01
5.538000e+00  5.168648e-01  -5.156769e-01
5.539000e+00  5.120092e-01  -5.189638e-01
5.540000e+00  5.071148e-01  -5.222104e-01
5.541000e+00  5.021818e-01  -5.254164e-01
5.542000e+00  4.972101e-01  -5.285810e-01
5.543000e+00  4.922000e-01  -5.317038e-01
5.544000e+00  4.871516e-01  -5.347841e-01
5.545000e+00  4.820650e-01  -5.378214e-01
5.546000e+00  4.769405e-01  -5.408150e-01
5.547000e+00  4.717781e-01  -5.437643e-01
5.548000e+00  4.665780e-01  -5.466688e-01
5.549000e+00  4.613404e-01  -5.495277e-01
5.550000e+00  4.560654e-01  -5.523406e-01
5.551000e+00  4.507534e-01  -5.551067e-01
5.552000e+00  4.454043e-01  -5.578254e-01
5.553000e+00  4.400186e-01  -5.604960e-01
5.554000e+00  4.345963e-01  -5.631180e-01
5.555000e+00  4.291377e-01  -5.656907e-01
5.556000e+00  4.236431e-01  -5.682133e-01
5.557000e+00  4.181127e-01  -5.706853e-01
5.558000e+00  4.125466e-01  -5.731059e-01
5.559000e+00  4.069453e-01  -5.754745e-01
5.560000e+00  4.013089e-01  -5.777904e-01
5.561000e+00  3.956378e-01  -5.800528e-01
5.562000e+00  3.899322e-01  -5.822611e-01
5.563000e+00  3.841924e-01  -5.844147e-01
5.564000e+00  3.784188e-01  -5.865126e-01
5.565000e+00  3.726117e-01  -5.885543e-01
5.566000e+00  3.667714e-01  -5.905390e-01
5.567000e+00  3.608983e-01  -5.924660e-01
5.568000e+00  3.549927e-01  -5.943346e-01
5.569000e+00  3.490551e-01  -5.961439e-01
5.570000e+00  3.430858e-01  -5.978933e-01
5.571000e+00  3.370852e-01  -5.995819e-01
5.572000e+00  3.310537e-01  -6.012091e-01
5.573000e+00  3.249918e-01  -6.027741e-01
5.574000e+00  3.189000e-01  -6.042760e-01
5.575000e+00  3.127786e-01  -6.057142e-01
5.576000e+00  3.066282e-01  -6.070877e-01
5.577000e+00  3.004492e-01  -6.083959e-01
5.578000e+00  2.942423e-01  -6.096380e-01
5.579000e+00  2.880078e-01  -6.108130e-01
5.580000e+00  2.817464e-01  -6.119204e-01
5.581000e+00  2.754586e-01  -6.129591e-01
5.582000e+00  2.691450e-01  -6.139285e-01
5.583000e+00  2.628062e-01  -6.148277e-01
5.584000e+00  2.564428e-01  -6.156558e-01
5.585000e+00  2.500555e-01  -6.164121e-01
5.586000e+00  2.436448e-01  -6.170958e-01
5.587000e+00  2.372116e-01  -6.177060e-01
5.588000e+00  2.307565e-01  -6.182418e-01
5.589000e+00  2.242801e-01  -6.187025e-01
5.590000e+00  2.177833e-01  -6.190872e-01
5.591000e+00  2.112668e-01  -6.193951e-01
5.592000e+00  2.047315e-01  -6.196253e-01
5.593000e+00  1.981780e-01  -6.197769e-01
5.594000e+00  1.916072e-01  -6.198493e-01
5.595000e+00  1.850201e-01  -6.198414e-01
5.596000e+00  1.784174e-01  -6.197526e-01
5.597000e+00  1.718001e-01  -6.195818e-01
5.598000e+00  1.651690e-01  -6.193284e-01
5.599000e+00  1.585253e-01  -6.189914e-01
5.600000e+00  1.518697e-01  -6.185700e-01
5.601000e+00  1.452035e-01  -6.180634e-01
5.602000e+00  1.385274e-01  -6.174708e-01
5.603000e+00  1.318428e-01  -6.167913e-01
5.604000e+00  1.251505e-01  -6.160241e-01
5.605000e+00  1.184518e-01  -6.151685e-01
5.606000e+00  1.117478e-01  -6.142235e-01
5.607000e+00  1.050396e-01  -6.131885e-01
5.608000e+00  9.832851e-02  -6.120625e-01
5.609000e+00  9.161570e-02  -6.108448e-01
5.610000e+00  8.490246e-02  -6.095347e-01
5.611000e+00  7.819008e-02  -6.081313e-01
5.612000e+00  7.147989e-02  -6.066340e-01
5.613000e+00  6.477324e-02  -6.050418e-01
5.614000e+00  5.807152e-02  -6.033542e-01
5.615000e+00  5.137616e-02  -6.015704e-01
5.616000e+00  4.468861e-02  -5.996897e-01
5.617000e+00  3.801036e-02  -5.977114e-01
5.618000e+00  3.134293e-02  -5.956348e-01
5.619000e+00  2.468788e-02  -5.934592e-01
5.620000e+00  1.804679e-02  -5.911840e-01
5.621000e+00  1.142129e-02  -5.888086e-01
5.622000e+00  4.813033e-03  -5.863324e-01
5.623000e+00  -1.776285e-03  -5.837547e-01
5.624000e+00  -8.344937e-03  -5.810751e-01
5.625000e+00  -1.489116e-02  -5.782930e-01
5.626000e+00  -2.141317e-02  -5.754078e-01
5.627000e+00  -2.790912e-02  -5.724191e-01
5.628000e+00  -3.437714e-02  -5.693264e-01
5.629000e+00  -4.081535e-02  -5.661293e-01
5.630000e+00  -4.722179e-02  -5.628274e-01
5.631000e+00  -5.359449e-02  -5.594203e-01
5.632000e+00  -5.993146e-02  -5.559077e-01
5.633000e+00  -6.623064e-02  -5.522892e-01
5.634000e+00  -7.248995e-02  -5.485646e-01
5.635000e+00  -7.870729e-02  -5.447337e-01
5.636000e+00  -8.488052e-02  -5.407963e-01
5.637000e+00  -9.100743e-02  -5.367521e-01
5.638000e+00  -9.708584e-02  -5.326012e-01
5.639000e+00  -1.031135e-01  -5.283434e-01
5.640000e+00  -1.090881e-01  -5.239788e-01
5.641000e+00  -1.150073e-01  -5.195073e-01
5.642000e+00  -1.208689e-01  -5.149289e-01
5.643000e+00  -1.266703e-01  -5.102440e-01
5.644000e+00  -1.324093e-01  -5.054525e-01
5.645000e+00  -1.380834e-01  -5.005547e-01
5.646000e+00  -1.436901e-01  -4.955510e-01
5.647000e+00  -1.492270e-01  -4.904416e-01
5.648000e+00  -1.546915e-01  -4.852270e-01
5.649000e+00  -1.600810e-01  -4.799076e-01
5.650000e+00  -1.653931e-01  -4.744839e-01
5.651000e+00  -1.706250e-01  -4.689565e-01
5.652000e+00  -1.757743e-01  -4.633261e-01
5.653000e+00  -1.808383e-01  -4.575934e-01
5.654000e+00  -1.858143e-01  -4.517591e-01
5.655000e+00  -1.906997e-01  -4.458242e-01
5.656000e+00  -1.954917e-01  -4.397895e-01
5.657000e+00  -2.001877e-01  -4.336561e-01
5.658000e+00  -2.047850e-01  -4.274249e-01
5.659000e+00  -2.092809e-01  -4.210973e-01
5.660000e+00  -2.136725e-01  -4.146744e-01
5.661000e+00  -2.179573e-01  -4.081575e-01
5.662000e+00  -2.221325e-01  -4.015481e-01
5.663000e+00  -2.261952e-01  -3.948475e-01
5.664000e+00  -2.301429e-01  -3.880574e-01
5.665000e+00  -2.339727e-01  -3.811795e-01
5.666000e+00  -2.376819e-01  -3.742154e-01
5.667000e+00  -2.412679e-01  -3.671670e-01
5.668000e+00  -2.447279e-01  -3.600362e-01
5.669000e+00  -2.480591e-01  -3.528250e-01
5.670000e+00  -2.512591e-01  -3.455355e-01
5.671000e+00  -2.543250e-01  -3.381699e-01
5.672000e+00  -2.572543e-01  -3.307305e-01
5.673000e+00  -2.600443e-01  -3.232196e-01
5.674000e+00  -2.626926e-01  -3.156398e-01
5.675000e+00  -2.651965e-01  -3.079935e-01
5.676000e+00  -2.675536e-01  -3.002835e-01
5.677000e+00  -2.697613e-01  -2.925125e-01
5.678000e+00  -2.718174e-01  -2.846834e-01
5.679000e+00  -2.737193e-01  -2.767990e-01
5.680000e+00  -2.754649e-01  -2.688626e-01
5.681000e+00  -2.770518e-01  -2.608771e-01
5.682000e+00  -2.784779e-01  -2.528458e-01
5.683000e+00  -2.797410e-01  -2.447721e-01
5.684000e+00  -2.808390e-01  -2.366593e-01
5.685000e+00  -2.817700e-01  -2.285110e-01
5.686000e+00  -2.825320e-01  -2.203308e-01
5.687000e+00  -2.831231e-01  -2.121223e-01
5.688000e+00  -2.835417e-01  -2.038894e-01
5.689000e+00  -2.837860e-01  -1.956359e-01
5.690000e+00  -2.838545e-01  -1.873658e-01
5.691000e+00  -2.837457e-01  -1.790830e-01
5.692000e+00  -2.834581e-01  -1.707918e-01
5.693000e+00  -2.829906e-01  -1.624962e-01
5.694000e+00  -2.823419e-01  -1.542006e-01
5.695000e+00  -2.815109e-01  -1.459092e-01
5.696000e+00  -2.804967e-01  -1.376266e-01
5.697000e+00  -2.792985e-01  -1.293571e-01
5.698000e+00  -2.779155e-01  -1.211053e-01
5.699000e+00  -2.763471e-01  -1.128758e-01
5.700000e+00  -2.745930e-01  -1.046733e-01
5.701000e+00  -2.726527e-01  -9.650236e-02
5.702000e+00  -2.705260e-01  -8.836782e-02
5.703000e+00  -2.682130e-01  -8.027446e-02
5.704000e+00  -2.657136e-01  -7.222710e-02
5.705000e+00  -2.630281e-01  -6.423060e-02
5.706000e+00  -2.601569e-01  -5.628986e-02
5.707000e+00  -2.571004e-01  -4.840979e-02
5.708000e+00  -2.538594e-01  -4.059533e-02
5.709000e+00  -2.504346e-01  -3.285142e-02
5.710000e+00  -2.468271e-01  -2.518303e-02
5.711000e+00  -2.430378e-01  -1.759511e-02
5.712000e+00  -2.390683e-01  -1.009262e-02
5.713000e+00  -2.349197e-01  -2.680512e-03
5.714000e+00  -2.305938e-01  4.636276e-03
5.715000e+00  -2.260923e-01  1.185283e-02
5.716000e+00  -2.214171e-01  1.896426e-02
5.717000e+00  -2.165703e-01  2.596570e-02
5.718000e+00  -2.115541e-01  3.285233e-02
5.719000e+00  -2.063708e-01  3.961938e-02
5.720000e+00  -2.010231e-01  4.626212e-02
5.721000e+00  -1.955136e-01  5.277586e-02
5.722000e+00  -1.898452e-01  5.915601e-02
5.723000e+00  -1.840209e-01  6.539801e-02
5.724000e+00  -1.780438e-01  7.149739e-02
5.725000e+00  -1.719172e-01  7.744977e-02
5.726000e+00  -1.656447e-01  8.325083e-02
5.727000e+00  -1.592297e-01  8.889637e-02
5.728000e+00  -1.526760e-01  9.438226e-02
5.729000e+00  -1.459876e-01  9.970448e-02
5.730000e+00  -1.391684e-01  1.048591e-01
5.731000e+00  -1.322225e-01  1.098424e-01
5.732000e+00  -1.251543e-01  1.146506e-01
5.733000e+00  -1.179681e-01  1.192802e-01
5.734000e+00  -1.106685e-01  1.237278e-01
5.735000e+00  -1.032600e-01  1.279901e-01
5.736000e+00  -9.574741e-02  1.320638e-01
5.737000e+00  -8.813557e-02  1.359461e-01
5.738000e+00  -8.042941e-02  1.396339e-01
5.739000e+00  -7.263396e-02  1.431246e-01
5.740000e+00  -6.475436e-02  1.464157e-01
5.741000e+00  -5.679581e-02  1.495046e-01
5.742000e+00  -4.876358e-02  1.523891e-01
5.743000e+00  -4.066305e-02  1.550672e-01
5.744000e+00  -3.249963e-02  1.575368e-01
5.745000e+00  -2.427879e-02  1.597963e-01
5.746000e+00  -1.600609e-02  1.618439e-01
5.747000e+00  -7.687085e-03  1.636783e-01
5.748000e+00  6.725857e-04  1.652982e-01
5.749000e+00  9.067268e-03  1.667025e-01
5.750000e+00  1.749128e-02  1.678902e-01
5.751000e+00  2.593890e-02  1.688606e-01
5.752000e+00  3.440442e-02  1.696132e-01
5.753000e+00  4.288210e-02  1.701475e-01
5.754000e+00  5.136619e-02  1.704633e-01
5.755000e+00  5.985097e-02  1.705604e-01
5.756000e+00  6.833071e-02  1.704391e-01
5.757000e+00  7.679969e-02  1.700996e-01
5.758000e+00  8.525223e-02  1.695424e-01
5.759000e+00  9.368266e-02  1.687680e-01
5.760000e+00  1.020853e-01  1.677772e-01
5.761000e+00  1.104547e-01  1.665710e-01
5.762000e+00  1.187851e-01  1.651505e-01
5.763000e+00  1.270712e-01  1.635168e-01
5.764000e+00  1.353074e-01  1.616716e-01
5.765000e+00  1.434884e-01  1.596162e-01
5.766000e+00  1.516088e-01  1.573525e-01
5.767000e+00  1.596634e-01  1.548822e-01
5.768000e+00  1.676470e-01  1.522074e-01
5.769000e+00  1.755544e-01  1.493303e-01
5.770000e+00  1.833807e-01  1.462531e-01
5.771000e+00  1.911209e-01  1.429782e-01
5.772000e+00  1.987701e-01  1.395082e-01
5.773000e+00  2.063237e-01  1.358457e-01
5.774000e+00  2.137768e-01  1.319936e-01
5.775000e+00  2.211250e-01  1.279547e-01
5.776000e+00  2.283637e-01  1.237320e-01
5.777000e+00  2.354886e-01  1.193287e-01
5.778000e+00  2.424955e-01  1.147480e-01
5.779000e+00  2.493802e-01  1.099933e-01
5.780000e+00  2.561386e-01  1.050679e-01
5.781000e+00  2.627668e-01  9.997534e-02
5.782000e+00  2.692611e-01  9.471925e-02
5.783000e+00  2.756176e-01  8.930330e-02
5.784000e+00  2.818329e-01  8.373124e-02
5.785000e+00  2.879034e-01  7.800689e-02
5.786000e+00  2.938259e-01  7.213417e-02
5.787000e+00  2.995970e-01  6.611702e-02
5.788000e+00  3.052137e-01  5.995947e-02
5.789000e+00  3.106730e-01  5.366560e-02
5.790000e+00  3.159720e-01  4.723954e-02
5.791000e+00  3.211080e-01  4.068545e-02
5.792000e+00  3.260784e-01  3.400757e-02
5.793000e+00  3.308807e-01  2.721016e-02
5.794000e+00  3.355124e-01  2.029750e-02
5.795000e+00  3.399714e-01  1.327393e-02
5.796000e+00  3.442554e-01  6.143792e-03
5.797000e+00  3.483625e-01  -1.088520e-03
5.798000e+00  3.522907e-01  -8.418609e-03
5.799000e+00  3.560382e-01  -1.584206e-02
5.800000e+00  3.596035e-01  -2.335442e-02
5.801000e+00  3.629848e-01  -3.095127e-02
5.802000e+00  3.661809e-01  -3.862814e-02
5.803000e+00  3.691902e-01  -4.638057e-02
5.804000e+00  3.720117e-01  -5.420410e-02
5.805000e+00  3.746442e-01  -6.209428e-02
5.806000e+00  3.770866e-01  -7.004663e-02
5.807000e+00  3.793382e-01  -7.805671e-02
5.808000e+00  3.813980e-01  -8.612007e-02
5.809000e+00  3.832654e-01  -9.423228e-02
5.810000e+00  3.849399e-01  -1.023889e-01
5.811000e+00  3.864208e-01  -1.105856e-01
5.812000e+00  3.877079e-01  -1.188178e-01
5.813000e+00  3.888008e-01  -1.270813e-01
5.814000e+00  3.896993e-01  -1.353717e-01
5.815000e+00  3.904033e-01  -1.436847e-01
5.816000e+00  3.909128e-01  -1.520160e-01
5.817000e+00  3.912279e-01  -1.603612e-01
5.818000e+00  3.913488e-01  -1.687161e-01
5.819000e+00  3.912755e-01  -1.770765e-01
5.820000e+00  3.910086e-01  -1.854382e-01
5.821000e+00  3.905485e-01  -1.937971e-01
5.822000e+00  3.898955e-01  -2.021489e-01
5.823000e+00  3.890503e-01  -2.104897e-01
5.824000e+00  3.880136e-01  -2.188152e-01
5.825000e+00  3.867860e-01  -2.271215e-01
5.826000e+00  3.853684e-01  -2.354047e-01
5.827000e+00  3.837616e-01  -2.436606e-01
5.828000e+00  3.819667e-01  -2.518855e-01
5.829000e+00  3.799845e-01  -2.600754e-01
5.830000e+00  3.778162e-01  -2.682264e-01
5.831000e+00  3.754630e-01  -2.763348e-01
5.832000e+00  3.729260e-01  -2.843968e-01
5.833000e+00  3.702066e-01  -2.924086e-01
5.834000e+00  3.673061e-01  -3.003666e-01
5.835000e+00  3.642259e-01  -3.082671e-01
5.836000e+00  3.609675e-01  -3.161065e-01
5.837000e+00  3.575323e-01  -3.238813e-01
5.838000e+00  3.539221e-01  -3.315878e-01
5.839000e+00  3.501383e-01  -3.392227e-01
5.840000e+00  3.461828e-01  -3.467825e-01
5.841000e+00  3.420573e-01  -3.542638e-01
5.842000e+00  3.377635e-01  -3.616632e-01
5.843000e+00  3.333035e-01  -3.689775e-01
5.844000e+00  3.286789e-01  -3.762033e-01
5.845000e+00  3.238919e-01  -3.833374e-01
5.846000e+00  3.189445e-01  -3.903767e-01
5.847000e+00  3.138386e-01  -3.973180e-01
5.848000e+00  3.085765e-01  -4.041582e-01
5.849000e+00  3.031603e-01  -4.108943e-01
5.850000e+00  2.975922e-01  -4.175232e-01
5.851000e+00  2.918744e-01  -4.240421e-01
5.852000e+00  2.860092e-01  -4.304479e-01
5.853000e+00  2.799991e-01  -4.367379e-01
5.854000e+00  2.738464e-01  -4.429091e-01
5.855000e+00  2.675534e-01  -4.489589e-01
5.856000e+00  2.611229e-01  -4.548845e-01
5.857000e+00  2.545571e-01  -4.606831e-01
5.858000e+00  2.478587e-01  -4.663523e-01
5.859000e+00  2.410304e-01  -4.718892e-01
5.860000e+00  2.340747e-01  -4.772915e-01
5.861000e+00  2.269943e-01  -4.825566e-01
5.862000e+00  2.197921e-01  -4.876821e-01
5.863000e+00  2.124707e-01  -4.926655e-01
5.864000e+00  2.050329e-01  -4.975045e-01
5.865000e+00  1.974817e-01  -5.021969e-01
5.866000e+00  1.898199e-01  -5.067402e-01
5.867000e+00  1.820505e-01  -5.111324e-01
5.868000e+00  1.741764e-01  -5.153713e-01
5.869000e+00  1.662006e-01  -5.194547e-01
5.870000e+00  1.581261e-01  -5.233806e-01
5.871000e+00  1.499561e-01  -5.271471e-01
5.872000e+00  1.416937e-01  -5.307521e-01
5.873000e+00  1.333420e-01  -5.341937e-01
5.874000e+00  1.249042e-01  -5.374702e-01
5.875000e+00  1.163836e-01  -5.405797e-01
5.876000e+00  1.077833e-01  -5.435204e-01
5.877000e+00  9.910679e-02  -5.462908e-01
5.878000e+00  9.035727e-02  -5.488892e-01
5.879000e+00  8.153813e-02  -5.513140e-01
5.880000e+00  7.265279e-02  -5.535637e-01
5.881000e+00  6.370466e-02  -5.556369e-01
5.882000e+00  5.469721e-02  -5.575321e-01
5.883000e+00  4.563392e-02  -5.592481e-01
5.884000e+00  3.651832e-02  -5.607836e-01
5.885000e+00  2.735395e-02  -5.621374e-01
5.886000e+00  1.814441e-02  -5.633083e-01
5.887000e+00  8.893297e-03  -5.642953e-01
5.888000e+00  -3.957516e-04  -5.650974e-01
5.889000e+00  -9.719073e-03  -5.657135e-01
5.890000e+00  -1.907298e-02  -5.661429e-01
5.891000e+00  -2.845375e-02  -5.663848e-01
5.892000e+00  -3.785766e-02  -5.664383e-01
5.893000e+00  -4.728093e-02  -5.663028e-01
5.894000e+00  -5.671980e-02  -5.659777e-01
5.895000e+00  -6.617045e-02  -5.654625e-01
5.896000e+00  -7.562907e-02  -5.647567e-01
5.897000e+00  -8.509180e-02  -5.638600e-01
5.898000e+00  -9.455480e-02  -5.627720e-01
5.899000e+00  -1.040142e-01  -5.614925e-01
5.900000e+00  -1.134661e-01  -5.600213e-01
5.901000e+00  -1.229066e-01  -5.583584e-01
5.902000e+00  -1.323317e-01  -5.565038e-01
5.903000e+00  -1.417377e-01  -5.544574e-01
5.904000e+00  -1.511204e-01  -5.522196e-01
5.905000e+00  -1.604760e-01  -5.497906e-01
5.906000e+00  -1.698006e-01  -5.471705e-01
5.907000e+00  -1.790901e-01  -5.443599e-01
5.908000e+00  -1.883407e-01  -5.413593e-01
5.909000e+00  -1.975484e-01  -5.381691e-01
5.910000e+00  -2.067092e-01  -5.347901e-01
5.911000e+00  -2.158192e-01  -5.312230e-01
5.912000e+00  -2.248744e-01  -5.274686e-01
5.913000e+00  -2.338709e-01  -5.235278e-01
5.914000e+00  -2.428048e-01  -5.194017e-01
5.915000e+00  -2.516721e-01  -5.150912e-01
5.916000e+00  -2.604690e-01  -5.105975e-01
5.917000e+00  -2.691916e-01  -5.059220e-01
5.918000e+00  -2.778360e-01  -5.010659e-01
5.919000e+00  -2.863983e-01  -4.960307e-01
5.920000e+00  -2.948747e-01  -4.908178e-01
5.921000e+00  -3.032615e-01  -4.854290e-01
5.922000e+00  -3.115548e-01  -4.798659e-01
5.923000e+00  -3.197508e-01  -4.741302e-01
5.924000e+00  -3.278460e-01  -4.682238e-01
5.925000e+00  -3.358366e-01  -4.621487e-01
5.926000e+00  -3.437189e-01  -4.559070e-01
5.927000e+00  -3.514893e-01  -4.495006e-01
5.928000e+00  -3.591443e-01  -4.429320e-01
5.929000e+00  -3.666803e-01  -4.362033e-01
5.930000e+00  -3.740940e-01  -4.293169e-01
5.931000e+00  -3.813817e-01  -4.222753e-01
5.932000e+00  -3.885402e-01  -4.150811e-01
5.933000e+00  -3.955661e-01  -4.077368e-01
5.934000e+00  -4.024562e-01  -4.002452e-01
5.935000e+00  -4.092071e-01  -3.926092e-01
5.936000e+00  -4.158159e-01  -3.848314e-01
5.937000e+00  -4.222794e-01  -3.769149e-01
5.938000e+00  -4.285945e-01  -3.688628e-01
5.939000e+00  -4.347583e-01  -3.606781e-01
5.940000e+00  -4.407679e-01  -3.523639e-01
5.941000e+00  -4.466205e-01  -3.439236e-01
5.942000e+00  -4.523133e-01  -3.353604e-01
5.943000e+00  -4.578437e-01  -3.266777e-01
5.944000e+00  -4.632091e-01  -3.178790e-01
5.945000e+00  -4.684069e-01  -3.089677e-01
5.946000e+00  -4.734347e-01  -2.999475e-01
5.947000e+00  -4.782903e-01  -2.908219e-01
5.948000e+00  -4.829712e-01  -2.815947e-01
5.949000e+00  -4.874754e-01  -2.722696e-01
5.950000e+00  -4.918007e-01  -2.628504e-01
5.951000e+00  -4.959452e-01  -2.533409e-01
5.952000e+00  -4.999070e-01  -2.437451e-01
5.953000e+00  -5.036842e-01  -2.340668e-01
5.954000e+00  -5.072751e-01  -2.243102e-01
5.955000e+00  -5.106782e-01  -2.144791e-01
5.956000e+00  -5.138919e-01  -2.045776e-01
5.957000e+00  -5.169147e-01  -1.946099e-01
5.958000e+00  -5.197455e-01  -1.845801e-01
5.959000e+00  -5.223828e-01  -1.744924e-01
5.960000e+00  -5.248257e-01  -1.643508e-01
5.961000e+00  -5.270732e-01  -1.541597e-01
5.962000e+00  -5.291242e-01  -1.439233e-01
5.963000e+00  -5.309781e-01  -1.336457e-01
5.964000e+00  -5.326340e-01  -1.233314e-01
5.965000e+00  -5.340915e-01  -1.129844e-01
5.966000e+00  -5.353500e-01  -1.026092e-01
5.967000e+00  -5.364091e-01  -9.221006e-02
5.968000e+00  -5.372686e-01  -8.179117e-02
5.969000e+00  -5.379283e-01  -7.135687e-02
5.970000e+00  -5.383880e-01  -6.091144e-02
5.971000e+00  -5.386480e-01  -5.045917e-02
5.972000e+00  -5.387082e-01  -4.000431e-02
5.973000e+00  -5.385689e-01  -2.955113e-02
5.974000e+00  -5.382305e-01  -1.910386e-02
5.975000e+00  -5.376934e-01  -8.666724e-03
5.976000e+00  -5.369582e-01  1.756076e-03
5.977000e+00  -5.360255e-01  1.216037e-02
5.978000e+00  -5.348961e-01  2.254200e-02
5.979000e+00  -5.335708e-01  3.289686e-02
5.980000e+00  -5.320505e-01  4.322087e-02
5.981000e+00  -5.303364e-01  5.350997e-02
5.982000e+00  -5.284296e-01  6.376015e-02
5.983000e+00  -5.263312e-01  7.396745e-02
5.984000e+00  -5.240426e-01  8.412793e-02
5.985000e+00  -5.215653e-01  9.423773e-02
5.986000e+00  -5.189007e-01  1.042930e-01
5.987000e+00  -5.160504e-01  1.142900e-01
5.988000e+00  -5.130161e-01  1.242249e-01
5.989000e+00  -5.097995e-01  1.340941e-01
5.990000e+00  -5.064026e-01  1.438940e-01
5.991000e+00  -5.028271e-01  1.536211e-01
5.992000e+00  -4.990752e-01  1.632717e-01
5.993000e+00  -4.951488e-01  1.728426e-01
5.994000e+00  -4.910501e-01  1.823303e-01
5.995000e+00  -4.867813e-01  1.917315e-01
5.996000e+00  -4.823448e-01  2.010430e-01
5.997000e+00  -4.777427e-01  2.102617e-01
5.998000e+00  -4.729777e-01  2.193844e-01
5.999000e+00  -4.680521e-01  2.284081e-01
6.000000e+00  -4.629684e-01  2.373299e-01
6.001000e+00  -4.577292e-01  2.461469e-01
6.002000e+00  -4.523373e-01  2.548563e-01
6.003000e+00  -4.467951e-01  2.634554e-01
6.004000e+00  -4.411056e-01  2.719415e-01
6.005000e+00  -4.352715e-01  2.803121e-01
6.006000e+00  -4.292956e-01  2.885648e-01
6.007000e+00  -4.231807e-01  2.966970e-01
6.008000e+00  -4.169298e-01  3.047066e-01
6.009000e+00  -4.105458e-01  3.125911e-01
6.010000e+00  -4.040318e-01  3.203486e-01
6.011000e+00  -3.973906e-01  3.279768e-01
6.012000e+00  -3.906253e-01  3.354738e-01
6.013000e+00  -3.837390e-01  3.428378e-01
6.014000e+00  -3.767348e-01  3.500667e-01
6.015000e+00  -3.696158e-01  3.571590e-01
6.016000e+00  -3.623850e-01  3.641129e-01
6.017000e+00  -3.550457e-01  3.709268e-01
6.018000e+00  -3.476009e-01  3.775992e-01
6.019000e+00  -3.400539e-01  3.841287e-01
6.020000e+00  -3.324078e-01  3.905139e-01
6.021000e+00  -3.246658e-01  3.967536e-01
6.022000e+00  -3.168311e-01  4.028466e-01
6.023000e+00  -3.089069e-01  4.087917e-01
6.024000e+00  -3.008963e-01  4.145880e-01
6.025000e+00  -2.928025e-01  4.202344e-01
6.026000e+00  -2.846288e-01  4.257301e-01
6.027000e+00  -2.763783e-01  4.310742e-01
6.028000e+00  -2.680542e-01  4.362661e-01
6.029000e+00  -2.596596e-01  4.413050e-01
6.030000e+00  -2.511977e-01  4.461905e-01
6.031000e+00  -2.426717e-01  4.509218e-01
6.032000e+00  -2.340846e-01  4.554987e-01
6.033000e+00  -2.254396e-01  4.599208e-01
6.034000e+00  -2.167398e-01  4.641876e-01
6.035000e+00  -2.079883e-01  4.682990e-01
6.036000e+00  -1.991880e-01  4.722548e-01
6.037000e+00  -1.903421e-01  4.760549e-01
6.038000e+00  -1.814535e-01  4.796992e-01
6.039000e+00  -1.725253e-01  4.831878e-01
6.040000e+00  -1.635603e-01  4.865206e-01
6.041000e+00  -1.545616e-01  4.896979e-01
6.042000e+00  -1.455321e-01  4.927197e-01
6.043000e+00  -1.364745e-01  4.955865e-01
6.044000e+00  -1.273919e-01  4.982984e-01
6.045000e+00  -1.182869e-01  5.008557e-01
6.046000e+00  -1.091624e-01  5.032590e-01
6.047000e+00  -1.000211e-01  5.055086e-01
6.048000e+00  -9.086583e-02  5.076051e-01
6.049000e+00  -8.169918e-02  5.095490e-01
6.050000e+00  -7.252384e-02  5.113409e-01
6.051000e+00  -6.334241e-02  5.129814e-01
6.052000e+00  -5.415749e-02  5.144712e-01
6.053000e+00  -4.497162e-02  5.158111e-01
6.054000e+00  -3.578732e-02  5.170019e-01
6.055000e+00  -2.660705e-02  5.180442e-01
6.056000e+00  -1.743326e-02  5.189390e-01
6.057000e+00  -8.268345e-03  5.196871e-01
6.058000e+00  8.853362e-04  5.202896e-01
6.059000e+00  1.002546e-02  5.207472e-01
6.060000e+00  1.914975e-02  5.210611e-01
6.061000e+00  2.825595e-02  5.212322e-01
6.062000e+00  3.734185e-02  5.212615e-01
6.063000e+00  4.640531e-02  5.211503e-01
6.064000e+00  5.544417e-02  5.208994e-01
6.065000e+00  6.445636e-02  5.205102e-01
6.066000e+00  7.343983e-02  5.199837e-01
6.067000e+00  8.239257e-02  5.193211e-01
6.068000e+00  9.131260e-02  5.185237e-01
6.069000e+00  1.001980e-01  5.175926e-01
6.070000e+00  1.090469e-01  5.165291e-01
6.071000e+00  1.178574e-01  5.153344e-01
6.072000e+00  1.266276e-01  5.140100e-01
6.073000e+00  1.353560e-01  5.125570e-01
6.074000e+00  1.440406e-01  5.109767e-01
6.075000e+00  1.526797e-01  5.092706e-01
6.076000e+00  1.612719e-01  5.074400e-01
6.077000e+00  1.698153e-01  5.054862e-01
6.078000e+00  1.783084e-01  5.034105e-01
6.079000e+00  1.867496e-01  5.012145e-01
6.080000e+00  1.951376e-01  4.988995e-01
6.081000e+00  2.034706e-01  4.964669e-01
6.082000e+00  2.117474e-01  4.939181e-01
6.083000e+00  2.199666e-01  4.912546e-01
6.084000e+00  2.281266e-01  4.884778e-01
6.085000e+00  2.362263e-01  4.855891e-01
6.086000e+00  2.442642e-01  4.825900e-01
6.087000e+00  2.522392e-01  4.794819e-01
6.088000e+00  2.601500e-01  4.762664e-01
6.089000e+00  2.679954e-01  4.729448e-01
6.090000e+00  2.757742e-01  4.695187e-01
6.091000e+00  2.834853e-01  4.659894e-01
6.092000e+00  2.911276e-01  4.623586e-01
6.093000e+00  2.987000e-01  4.586276e-01
6.094000e+00  3.062015e-01  4.547979e-01
6.095000e+00  3.136310e-01  4.508711e-01
6.096000e+00  3.209875e-01  4.468485e-01
6.097000e+00  3.282702e-01  4.427317e-01
6.098000e+00  3.354781e-01  4.385222e-01
6.099000e+00  3.426103e-01  4.342214e-01
6.100000e+00  3.496659e-01  4.298308e-01
6.101000e+00  3.566440e-01  4.253518e-01
6.102000e+00  3.635440e-01  4.207860e-01
6.103000e+00  3.703649e-01  4.161348e-01
6.104000e+00  3.771060e-01  4.113997e-01
6.105000e+00  3.837667e-01  4.065821e-01
6.106000e+00  3.903461e-01  4.016835e-01
6.107000e+00  3.968436e-01  3.967053e-01
6.108000e+00  4.032585e-01  3.916490e-01
6.109000e+00  4.095902e-01  3.865161e-01
6.110000e+00  4.158381e-01  3.813079e-01
6.111000e+00  4.220016e-01  3.760259e-01
6.112000e+00  4.280801e-01  3.706716e-01
6.113000e+00  4.340731e-01  3.652463e-01
6.114000e+00  4.399800e-01  3.597515e-01
6.115000e+00  4.458004e-01  3.541886e-01
6.116000e+00  4.515338e-01  3.485590e-01
6.117000e+00  4.571796e-01  3.428640e-01
6.118000e+00  4.627376e-01  3.371052e-01
6.119000e+00  4.682071e-01  3.312838e-01
6.120000e+00  4.735879e-01  3.254013e-01
6.121000e+00  4.788795e-01  3.194589e-01
6.122000e+00  4.840817e-01  3.134582e-01
6.123000e+00  4.891939e-01  3.074004e-01
6.124000e+00  4.942160e-01  3.012869e-01
6.125000e+00  4.991476e-01  2.951191e-01
6.126000e+00  5.039884e-01  2.888982e-01
6.127000e+00  5.087381e-01  2.826256e-01
6.128000e+00  5.133964e-01  2.763027e-01
6.129000e+00  5.179632e-01  2.699307e-01
6.130000e+00  5.224381e-01  2.635109e-01
6.131000e+00  5.268210e-01  2.570447e-01
6.132000e+00  5.311117e-01  2.505333e-01
6.133000e+00  5.353100e-01  2.439781e-01
6.134000e+00  5.394156e-01  2.373802e-01
6.135000e+00  5.434285e-01  2.307411e-01
6.136000e+00  5.473485e-01  2.240618e-01
6.137000e+00  5.511754e-01  2.173438e-01
6.138000e+00  5.549093e-01  2.105882e-01
6.139000e+00  5.585498e-01  2.037963e-01
6.140000e+00  5.620970e-01  1.969693e-01
6.141000e+00  5.655508e-01  1.901084e-01
6.142000e+00  5.689111e-01  1.832149e-01
6.143000e+00  5.721779e-01  1.762899e-01
6.144000e+00  5.753510e-01  1.693347e-01
6.145000e+00  5.784306e-01  1.623505e-01
6.146000e+00  5.814165e-01  1.553384e-01
6.147000e+00  5.843087e-01  1.482997e-01
6.148000e+00  5.871073e-01  1.412355e-01
6.149000e+00  5.898122e-01  1.341469e-01
6.150000e+00  5.924236e-01  1.270352e-01
6.151000e+00  5.949413e-01  1.199015e-01
6.152000e+00  5.973655e-01  1.127470e-01
6.153000e+00  5.996962e-01  1.055727e-01
6.154000e+00  6.019335e-01  9.837983e-02
6.155000e+00  6.040775e-01  9.116950e-02
6.156000e+00  6.061281e-01  8.394284e-02
6.157000e+00  6.080856e-01  7.670095e-02
6.158000e+00  6.099500e-01  6.944495e-02
6.159000e+00  6.117215e-01  6.217593e-02
6.160000e+00  6.134001e-01  5.489499e-02
6.161000e+00  6.149860e-01  4.760322e-02
6.162000e+00  6.164793e-01  4.030169e-02
6.163000e+00  6.178801e-01  3.299150e-02
6.164000e+00  6.191887e-01  2.567370e-02
6.165000e+00  6.204052e-01  1.834935e-02
6.166000e+00  6.215297e-01  1.101953e-02
6.167000e+00  6.225625e-01  3.685273e-03
6.168000e+00  6.235036e-01  -3.652368e-03
6.169000e+00  6.243534e-01  -1.099235e-02
6.170000e+00  6.251120e-01  -1.833365e-02
6.171000e+00  6.257797e-01  -2.567522e-02
6.172000e+00  6.263566e-01  -3.301606e-02
6.173000e+00  6.268430e-01  -4.035513e-02
6.174000e+00  6.272391e-01  -4.769143e-02
6.175000e+00  6.275451e-01  -5.502395e-02
6.176000e+00  6.277614e-01  -6.235169e-02
6.177000e+00  6.278882e-01  -6.967366e-02
6.178000e+00  6.279257e-01  -7.698885e-02
6.179000e+00  6.278742e-01  -8.429630e-02
6.180000e+00  6.277340e-01  -9.159501e-02
6.181000e+00  6.275054e-01  -9.888401e-02
6.182000e+00  6.271887e-01  -1.061623e-01
6.183000e+00  6.267841e-01  -1.134290e-01
6.184000e+00  6.262921e-01  -1.206831e-01
6.185000e+00  6.257130e-01  -1.279236e-01
6.186000e+00  6.250469e-01  -1.351497e-01
6.187000e+00  6.242944e-01  -1.423602e-01
6.188000e+00  6.234557e-01  -1.495544e-01
6.189000e+00  6.225312e-01  -1.567313e-01
6.190000e+00  6.215212e-01  -1.638899e-01
6.191000e+00  6.204261e-01  -1.710293e-01
6.192000e+00  6.192463e-01  -1.781487e-01
6.193000e+00  6.179822e-01  -1.852470e-01
6.194000e+00  6.166341e-01  -1.923235e-01
6.195000e+00  6.152025e-01  -1.993771e-01
6.196000e+00  6.136877e-01  -2.064069e-01
6.197000e+00  6.120902e-01  -2.134122e-01
6.198000e+00  6.104104e-01  -2.203920e-01
6.199000e+00  6.086487e-01  -2.273454e-01
6.200000e+00  6.068055e-01  -2.342715e-01
6.201000e+00  6.048813e-01  -2.411695e-01
6.202000e+00  6.028765e-01  -2.480384e-01
6.203000e+00  6.007916e-01  -2.548775e-01
6.204000e+00  5.986270e-01  -2.616859e-01
6.205000e+00  5.963833e-01  -2.684627e-01
6.206000e+00  5.940609e-01  -2.752071e-01
6.207000e+00  5.916602e-01  -2.819182e-01
6.208000e+00  5.891818e-01  -2.885952e-01
6.209000e+00  5.866263e-01  -2.952372e-01
6.210000e+00  5.839940e-01  -3.018435e-01
6.211000e+00  5.812855e-01  -3.084132e-01
6.212000e+00  5.785013e-01  -3.149455e-01
6.213000e+00  5.756421e-01  -3.214396e-01
6.214000e+00  5.727082e-01  -3.278947e-01
6.215000e+00  5.697003e-01  -3.343100e-01
6.216000e+00  5.666189e-01  -3.406846e-01
6.217000e+00  5.634646e-01  -3.470179e-01
6.218000e+00  5.602379e-01  -3.533091e-01
6.219000e+00  5.569395e-01  -3.595572e-01
6.220000e+00  5.535698e-01  -3.657617e-01
6.221000e+00  5.501296e-01  -3.719217e-01
6.222000e+00  5.466194e-01  -3.780365e-01
6.223000e+00  5.430399e-01  -3.841053e-01
6.224000e+00  5.393915e-01  -3.901274e-01
6.225000e+00  5.356751e-01  -3.961021e-01
6.226000e+00  5.318911e-01  -4.020286e-01
6.227000e+00  5.280403e-01  -4.079062e-01
6.228000e+00  5.241233e-01  -4.137341e-01
6.229000e+00  5.201408e-01  -4.195118e-01
6.230000e+00  5.160933e-01  -4.252384e-01
6.231000e+00  5.119817e-01  -4.309133e-01
6.232000e+00  5.078065e-01  -4.365358e-01
6.233000e+00  5.035685e-01  -4.421053e-01
6.234000e+00  4.992683e-01  -4.476209e-01
6.235000e+00  4.949067e-01  -4.530822e-01
6.236000e+00  4.904843e-01  -4.584884e-01
6.237000e+00  4.860020e-01  -4.638389e-01
6.238000e+00  4.814603e-01  -4.691330e-01
6.239000e+00  4.768601e-01  -4.743702e-01
6.240000e+00  4.722021e-01  -4.795497e-01
6.241000e+00  4.674870e-01  -4.846711e-01
6.242000e+00  4.627155e-01  -4.897336e-01
6.243000e+00  4.578886e-01  -4.947366e-01
6.244000e+00  4.530068e-01  -4.996797e-01
6.245000e+00  4.480710e-01  -5.045622e-01
6.246000e+00  4.430820e-01  -5.093835e-01
6.247000e+00  4.380406e-01  -5.141431e-01
6.248000e+00  4.329475e-01  -5.188404e-01
6.249000e+00  4.278036e-01  -5.234749e-01
6.250000e+00  4.226097e-01  -5.280461e-01
6.251000e+00  4.173665e-01  -5.325534e-01
6.252000e+00  4.120750e-01  -5.369963e-01
6.253000e+00  4.067359e-01  -5.413743e-01
6.254000e+00  4.013501e-01  -5.456870e-01
6.255000e+00  3.959183e-01  -5.499338e-01
6.256000e+00  3.904416e-01  -5.541142e-01
6.257000e+00  3.849207e-01  -5.582279e-01
6.258000e+00  3.793564e-01  -5.622743e-01
6.259000e+00  3.737498e-01  -5.662531e-01
6.260000e+00  3.681015e-01  -5.701637e-01
6.261000e+00  3.624125e-01  -5.740059e-01
6.262000e+00  3.566837e-01  -5.777790e-01
6.263000e+00  3.509159e-01  -5.814829e-01
6.264000e+00  3.451101e-01  -5.851170e-01
6.265000e+00  3.392671e-01  -5.886811e-01
6.266000e+00  3.333879e-01  -5.921747e-01
6.267000e+00  3.274734e-01  -5.955975e-01
6.268000e+00  3.215244e-01  -5.989492e-01
6.269000e+00  3.155419e-01  -6.022294e-01
6.270000e+00  3.095268e-01  -6.054379e-01
6.271000e+00  3.034800e-01  -6.085742e-01
6.272000e+00  2.974025e-01  -6.116383e-01
6.273000e+00  2.912951e-01  -6.146296e-01
6.274000e+00  2.851589e-01  -6.175481e-01
6.275000e+00  2.789947e-01  -6.203934e-01
6.276000e+00  2.728035e-01  -6.231653e-01
6.277000e+00  2.665862e-01  -6.258636e-01
6.278000e+00  2.603438e-01  -6.284881e-01
6.279000e+00  2.540772e-01  -6.310385e-01
6.280000e+00  2.477875e-01  -6.335148e-01
6.281000e+00  2.414754e-01  -6.359166e-01
6.282000e+00  2.351420e-01  -6.382438e-01
6.283000e+00  2.287883e-01  -6.404964e-01
6.284000e+00  2.224151e-01  -6.426741e-01
6.285000e+00  2.160235e-01  -6.447768e-01
6.286000e+00  2.096145e-01  -6.468045e-01
6.287000e+00  2.031889e-01  -6.487570e-01
6.288000e+00  1.967477e-01  -6.506343e-01
6.289000e+00  1.902919e-01  -6.524362e-01
6.290000e+00  1.838225e-01  -6.541628e-01
6.291000e+00  1.773404e-01  -6.558139e-01
6.292000e+00  1.708466e-01  -6.573896e-01
6.293000e+00  1.643421e-01  -6.588898e-01
6.294000e+00  1.578277e-01  -6.603146e-01
6.295000e+00  1.513045e-01  -6.616639e-01
6.296000e+00  1.447735e-01  -6.629378e-01
6.297000e+00  1.382355e-01  -6.641363e-01
6.298000e+00  1.316916e-01  -6.652595e-01
6.299000e+00  1.251426e-01  -6.663074e-01
6.300000e+00  1.185896e-01  -6.672802e-01
